TITL CrystalPilot cross-check in P 6/m m m
    job.res
    created by SHELXL-2019/3 at 19:41:35 on 21-Sep-2026
CELL 0.68883 39.19000 39.19000 16.61000 90.0000 90.0000 120.0000
ZERR 24 0.00000 0.00000 0.00000 0.0000 0.0000 0.0000
LATT 1
SYMM X-Y,X,Z
SYMM Y,-X+Y,Z
SYMM -Y,X-Y,Z
SYMM -X+Y,-X,Z
SYMM X-Y,-Y,-Z
SYMM -X,-X+Y,-Z
SYMM -X,-Y,Z
SYMM Y,X,-Z
SYMM -Y,-X,-Z
SYMM -X+Y,Y,-Z
SYMM X,X-Y,-Z
SFAC C O Zr
REM DISP lambda 0.68883 A is not a SHELXL built-in line (Cu/Mo/Ag K-alpha):
REM DISP f'/f'' from cctbx (sasaki: C O Zr), mu = NIST attenuation in
REM DISP barn/atom
DISP $C 0.002 0.002 10.99
DISP $O 0.007 0.006 30.28
DISP $Zr -9.041 2.772 14341.91
UNIT 528.0 124.0 18.0

L.S. 6
BOND $H
CONF
ACTA
FMAP 2
PLAN 20

SHEL 999 1.000

WGHT    0.100000
FVAR       0.05248
ZR01  3    0.463845    0.536155    0.500000    10.25000    0.08777    0.08777 =
         0.06953    0.00000    0.00000    0.05560
ZR02  3    0.544755    0.544755    0.393699    10.50000    0.09389    0.09389 =
         0.08560    0.01399    0.01399    0.05901
O003  2    0.481592    0.586376    0.582049    11.00000    0.11092    0.10973 =
         0.09191    0.00083    0.00067    0.07686
O004  2    0.534123    0.593008    0.650275    11.00000    0.11802    0.12364 =
         0.12731   -0.03799   -0.03302    0.07763
O005  2    0.527001    0.562965    0.500000    10.50000    0.12747    0.22272 =
         0.10733    0.00000    0.00000    0.11803
O006  2    0.537663    0.537663    0.261878    10.50000    0.20284    0.20284 =
         0.09107    0.02104    0.02104    0.15609
O007  2    0.601100    0.601100    0.412331    10.50000    0.09673    0.09673 =
         0.27524    0.00346    0.00346    0.04247
O008  2    0.517516    0.482484    0.393063    10.50000    0.11891    0.11891 =
         0.15469    0.02656   -0.02656    0.06331
C009  1    0.508710    0.601855    0.634853    11.00000    0.11009    0.11806 =
         0.09540   -0.00099   -0.01763    0.07287
C00A  1    0.506277    0.690306    0.781317    11.00000    0.24441    0.10842 =
         0.08219   -0.00074   -0.01036    0.11334
O00B  1    0.477049    0.641257    0.673233    11.00000    0.17413    0.12481 =
         0.11321   -0.02378   -0.00683    0.11114
C00C  1    0.507422    0.632816    0.686652    11.00000    0.15663    0.09730 =
         0.10801   -0.02200   -0.01511    0.08578
O00D  1    0.475511    0.669520    0.723078    11.00000    0.21755    0.12654 =
         0.11094   -0.01977   -0.02147    0.11405
C00E  1    0.505432    0.721920    0.832109    11.00000    0.23327    0.10820 =
         0.10051   -0.02925   -0.01785    0.11302
O00F  1    0.504762    0.752381    0.787685    10.50000    0.23302    0.09781 =
         0.13069   -0.01503   -0.03007    0.11651
O00G  1    0.538673    0.652231    0.741758    11.00000    0.18006    0.11317 =
         0.10198   -0.04488   -0.03493    0.07966
C00H  1    0.505076    0.721037    0.914432    11.00000    0.24099    0.11746 =
         0.06289   -0.01782   -0.00714    0.10232
C00I  1    0.503545    0.751773    0.957637    10.50000    0.24845    0.11705 =
         0.07630   -0.00898   -0.01795    0.12422
O00J  1    0.538671    0.682129    0.792128    11.00000    0.24275    0.13604 =
         0.12522    0.00414   -0.01505    0.13431
O00K  2    0.570303    0.429697    0.137201    10.50000    0.28034
O00L  1    0.505069    0.687594    0.958127    11.00000    0.27206    0.13837 =
         0.09337    0.02143    0.00881    0.13107
C00M  1    0.738359    0.534000    0.500000    10.50000    0.28128
C00N  1    0.594013    0.405987    0.097919    10.50000    0.19685
C00O  1    0.628484    0.628484    0.494197    10.50000    0.91788
C00P  1    0.765426    0.382713    0.500000    10.25000    0.83913
C00Q  1    0.797950    0.398975    0.500000    10.25000    0.41045
C00R  1    0.593782    0.672085    0.000000    10.50000    0.31753
C00S  1    0.701476    0.560260    0.500000    10.50000    0.40238
C00T  1    0.539783    0.460217    0.206053    10.50000    0.43601
C00U  1    0.665728    0.586728    0.500000    10.50000    0.44329
C00V  1    0.711473    0.422945    0.500000    10.25000    0.71507
C00W  1    1.000000    1.000000    0.017768    10.08333    2.00000
C00X  1    0.721578    0.590268    0.500000    10.50000    1.63926
C00Y  1    0.581392    0.640831    0.069441    11.00000    0.71871
C00Z  1    0.483172    0.401741    0.099234    11.00000    0.72826
C010  1    0.758575    0.517150    0.500000    10.25000    1.68211
O012  2    0.639523    0.639523    0.239487    10.50000    0.62196
C013  1    0.541739    0.458261    0.098236    10.50000    0.83133
O015  2    0.666667    0.333333    0.169790    10.16667    0.86579
C016  1    1.000000    1.000000    0.126260    10.08333    1.91427
C017  1    0.535872    0.464128   -0.192508    10.50000    1.98327
C018  1    1.000000    1.000000    0.974315    10.08333    0.29976
C019  1    0.738510    0.463868    0.500000    10.50000    0.83542
C01A  1    0.574080    0.425920    0.000000    10.25000    0.37406
C01C  1    0.776181    0.388090    0.539329    10.50000    1.47466
C01D  1    0.750510    0.576543    0.598830    11.00000    0.71650
C01E  1    0.946939    0.499804    0.500000    10.50000    1.02226
HKLF 4




REM  CrystalPilot cross-check in P 6/m m m
REM wR2 = 0.3328, GooF = S = 1.577, Restrained GooF = 1.577 for all data
REM R1 = 0.1289 for 2063 Fo > 4sig(Fo) and 0.2174 for all 4395 data
REM 230 parameters refined using 0 restraints

END  
     
WGHT      0.2000      0.0000 

REM Highest difference peak  0.603,  deepest hole -1.322,  1-sigma level  0.106
Q1    1   1.0000  1.0000  0.3992  10.08333  0.05    0.60
Q2    1   0.6207  0.3793  0.1091  10.50000  0.05    0.50
Q3    1   0.6120  0.6120  0.1860  10.50000  0.05    0.50
Q4    1   0.6502  0.3498  0.0000  10.25000  0.05    0.48
Q5    1   0.6667  0.3333  0.2648  10.16667  0.05    0.47
Q6    1   0.5000  0.5000  0.1484  10.25000  0.05    0.46
Q7    1   0.8458  0.9229  0.5000  10.25000  0.05    0.44
Q8    1   1.0000  1.0000  0.5000  10.04167  0.05    0.44
Q9    1   0.6976  0.3951  0.1475  10.50000  0.05    0.43
Q10   1   0.6137  0.6137  0.5000  10.25000  0.05    0.42
Q11   1   0.6922  0.3078  0.0000  10.25000  0.05    0.42
Q12   1   0.6667  0.3333  0.0669  10.16667  0.05    0.40
Q13   1   0.5693  0.5693  0.3568  10.50000  0.05    0.38
Q14   1   0.6864  0.6164  0.6003  11.00000  0.05    0.37
Q15   1   0.6260  0.3417  0.0522  11.00000  0.05    0.36
Q16   1   1.0000  1.0725  0.5000  10.25000  0.05    0.35
Q17   1   1.0000  1.0850  0.3898  10.50000  0.05    0.35
Q18   1   0.6648  0.6648  0.2716  10.50000  0.05    0.35
Q19   1   0.6556  0.6556  0.5000  10.25000  0.05    0.34
Q20   1   0.6427  0.3573  0.0943  10.50000  0.05    0.34
