TITL CrystalPilot n0018 in P 21 21 21
    verify_main.res
    created by SHELXL-2019/3 at 21:32:10 on 21-Sep-2026
REM CrystalPilot node n0018 tool=run_shelxl
REM R1 = 0.0442 wR2 = 0.2001 GooF = 1.222
CELL 0.71073 5.78803 5.96863 12.29941 90.0000 90.0000 90.0000
ZERR 4 0.00000 0.00000 0.00000 0.0000 0.0000 0.0000
LATT -1
SYMM X+1/2,-Y+1/2,-Z
SYMM -X,Y+1/2,-Z+1/2
SYMM -X+1/2,-Y,Z+1/2
SFAC C H N O
UNIT 12.0 28.0 4.0 8.0

EQIV $1 X-1, Y, Z
EQIV $2 -X, Y-1/2, -Z+3/2
EQIV $3 X-1/2, -Y+3/2, -Z+1
HTAB N1 O1_$1
HTAB N1 O1_$2
HTAB N1 O2_$3

WGHT    0.135300    0.075300
FVAR       1.35642
O1    4    0.261072    1.054902    0.684193    11.00000    0.00750    0.02644 =
         0.01917   -0.00367   -0.00102   -0.00049
O2    4    0.125673    0.772845    0.583520    11.00000    0.01200    0.02521 =
         0.01665   -0.00444    0.00141    0.00134
N1    3   -0.316130    0.852447    0.637797    11.00000    0.00770    0.01508 =
         0.01409   -0.00124    0.00014    0.00029
AFIX 137
H1A   2   -0.457980    0.906984    0.646720    11.00000   -1.50000
H1B   2   -0.294525    0.737963    0.683032    11.00000   -1.50000
H1C   2   -0.299062    0.805711    0.569553    11.00000   -1.50000
AFIX   0
C2    1   -0.145021    1.029370    0.661156    11.00000    0.00689    0.01764 =
         0.01135   -0.00040   -0.00035    0.00083
AFIX  13
H2    2   -0.158852    1.072135    0.737809    11.00000   -1.20000
AFIX   0
C1    1    0.100519    0.943513    0.641000    11.00000    0.00960    0.01334 =
         0.00888    0.00180   -0.00001    0.00065
C3    1   -0.196781    1.235162    0.590766    11.00000    0.01197    0.01582 =
         0.02420    0.00299   -0.00005    0.00125
AFIX 137
H3A   2   -0.084457    1.349672    0.605265    11.00000   -1.50000
H3B   2   -0.348322    1.290610    0.607571    11.00000   -1.50000
H3C   2   -0.189991    1.194133    0.515363    11.00000   -1.50000
L.S. 0
AFIX   0
HKLF 4




REM  CrystalPilot n0018 in P 21 21 21
REM wR2 = 0.1996, GooF = S = 1.219, Restrained GooF = 1.219 for all data
REM R1 = 0.0437 for 966 Fo > 4sig(Fo) and 0.0648 for all 1055 data
REM 57 parameters refined using 0 restraints

END  
     
WGHT      0.1395      0.0000 
