TITL CrystalPilot n0023 in P 6/m m m
REM CrystalPilot node n0023 tool=run_shelxl
REM R1 = 0.1402 wR2 = 0.3681 GooF = 1.759
CELL 0.68883 39.19000 39.19000 16.61000 90.0000 90.0000 120.0000
ZERR 24 0.00000 0.00000 0.00000 0.0000 0.0000 0.0000
LATT 1
SYMM X-Y,X,Z
SYMM Y,-X+Y,Z
SYMM -Y,X-Y,Z
SYMM -X+Y,-X,Z
SYMM X-Y,-Y,-Z
SYMM -X,-X+Y,-Z
SYMM -X,-Y,Z
SYMM Y,X,-Z
SYMM -Y,-X,-Z
SYMM -X+Y,Y,-Z
SYMM X,X-Y,-Z
SFAC C O Zr
REM DISP lambda 0.68883 A is not a SHELXL built-in line (Cu/Mo/Ag K-alpha):
REM DISP f'/f'' from cctbx (sasaki: C O Zr), mu = NIST attenuation in
REM DISP barn/atom
DISP $C 0.002 0.002 10.99
DISP $O 0.007 0.006 30.28
DISP $Zr -9.041 2.772 14341.91
UNIT 534.0 124.0 18.0

SHEL 999 1.000

WGHT 0.100000 0.000000
FVAR 0.05228
ZR01  3   0.463857   0.536143   0.500000    10.25000     0.08766     0.08766 =
      0.06850     0.00000     0.00000     0.05562
ZR02  3   0.544770   0.544770   0.393687    10.50000     0.09325     0.09325 =
      0.08545     0.01359     0.01359     0.05855
O003  2   0.481269   0.586365   0.581756    11.00000     0.10718     0.11191 =
      0.09291    -0.00426    -0.00856     0.07383
O004  2   0.533726   0.592756   0.649918    11.00000     0.11971     0.11960 =
      0.12039    -0.04144    -0.02707     0.06976
O005  2   0.526579   0.562590   0.500000    10.50000     0.12669     0.21188 =
      0.10473     0.00000     0.00000     0.11376
O006  2   0.538213   0.538213   0.262242    10.50000     0.20243     0.20243 =
      0.08866     0.01789     0.01789     0.15544
O007  2   0.601155   0.601155   0.413321    10.50000     0.09800     0.09800 =
      0.28538     0.01432     0.01432     0.05033
O008  2   0.517513   0.482487   0.393229    10.50000     0.11794     0.11794 =
      0.15732     0.02567    -0.02567     0.06067
C009  1   0.507320   0.601438   0.633973    11.00000     0.10813     0.11774 =
      0.10488    -0.00076    -0.01024     0.07878
C00A  1   0.504507   0.689666   0.780397    11.00000     0.25330     0.11685 =
      0.09043     0.01087     0.00495     0.12981
O00B  1   0.476970   0.641157   0.673244    11.00000     0.16728     0.12035 =
      0.10819    -0.02024    -0.00798     0.10236
C00C  1   0.506895   0.632236   0.685794    11.00000     0.15547     0.10501 =
      0.10695    -0.02550    -0.02593     0.08884
O00D  1   0.474585   0.669237   0.722010    11.00000     0.21472     0.12767 =
      0.10580    -0.03252    -0.03468     0.10727
C00E  1   0.505132   0.721985   0.832566    11.00000     0.22801     0.10702 =
      0.11273    -0.02995    -0.01564     0.11610
O00F  1   0.504736   0.752368   0.787658    10.50000     0.22316     0.08992 =
      0.14728    -0.02022    -0.04044     0.11158
O00G  1   0.538560   0.652387   0.740294    11.00000     0.19085     0.11410 =
      0.10738    -0.04552    -0.03890     0.09020
C00H  1   0.505189   0.721355   0.915698    11.00000     0.24108     0.12410 =
      0.05744    -0.01690    -0.00311     0.10097
C00I  1   0.504368   0.752184   0.958143    10.50000     0.25778     0.11626 =
      0.07077    -0.00658    -0.01315     0.12889
O00J  1   0.537880   0.682003   0.792462    11.00000     0.26424     0.13832 =
      0.12171     0.00291    -0.01629     0.14255
O00K  2   0.570253   0.429747   0.135351    10.50000     0.29920
O00L  1   0.505468   0.687748   0.959167    11.00000     0.29073     0.14224 =
      0.08761     0.02493     0.01396     0.14027
C00M  1   0.737909   0.531723   0.500000    10.50000     0.29221
C00N  1   0.593999   0.406001   0.097086    10.50000     0.20662
C00O  1   0.637916   0.637916   0.654801    10.50000     1.74290
C00P  1   0.754284   0.377142   0.500000    10.25000     0.74831
C00Q  1   0.796166   0.398083   0.500000    10.25000     0.38525
C00R  1   0.593127   0.670891   0.000000    10.50000     0.30770
C00T  1   0.539722   0.460278   0.208297    10.50000     0.43318
C00V  1   0.715222   0.430445   0.500000    10.25000     0.58477
C00W  1   1.000000   1.000000   0.040736    10.08333     0.39432
C00X  1   0.687621   0.581366   0.500000    10.50000     0.38767
C00Y  1   0.582965   0.639281   0.068984    11.00000     0.77115
C00Z  1   0.486591   0.409214   0.100063    11.00000     0.74176
C010  1   0.777826   0.555651   0.500000    10.25000     1.46100
C011  1   0.968438   0.936875   0.500000    10.25000     0.97723
O012  2   0.644014   0.644014   0.224094    10.50000     0.75410
C013  1   0.526771   0.473229   0.144181    10.50000     1.77393
C014  1   0.927820   0.855640   0.651881    10.50000     0.90962
O015  2   0.666667   0.333333   0.186682    10.16667     0.92531
C016  1   1.000000   1.000000   0.122732    10.08333     2.00000
C017  1   0.551668   0.448332  -0.133487    10.50000     1.06163
C018  1   1.000000   1.000000   0.709441    10.08333     2.00000
C019  1   0.806748   0.469060   0.500000    10.50000     0.93296
C01A  1   0.550597   0.449403   0.000000    10.25000     1.10222
C01B  1   0.937723   0.875445   0.711061    10.50000     2.00000
C01C  1   0.782729   0.391365   0.578530    10.50000     1.65770
C01D  1   0.746043   0.577482   0.593211    11.00000     0.72642
C01E  1   0.954435   0.493981   0.500000    10.50000     2.00000
HKLF 4
END
