TITL CrystalPilot n0000 in P 21 21 21
REM CrystalPilot node n0000 tool=import
CELL 0.71073 5.78803 5.96863 12.29941 90.0000 90.0000 90.0000
ZERR 4 0.00000 0.00000 0.00000 0.0000 0.0000 0.0000
LATT -1
SYMM X+1/2,-Y+1/2,-Z
SYMM -X,Y+1/2,-Z+1/2
SYMM -X+1/2,-Y,Z+1/2
SFAC C O
UNIT 16.0 8.0

WGHT 0.100000 0.000000
FVAR 1.00000
O1    2   0.239891   0.944849   0.184421    11.00000     0.01890
O2    2   0.125542   0.772717   0.583357    11.00000     0.01934
C1    1   0.183041   0.647407   0.361911    11.00000     0.00659
C2    1   0.144708   0.529457   0.839168    11.00000     0.01442
C3    1   0.100503   0.944343   0.640963    11.00000     0.01163
C4    1   0.196884   0.733998   0.909457    11.00000     0.01814
HKLF 4
END
