TITL CrystalPilot cross-check in P 21 21 21
    job.res
    created by SHELXL-2019/3 at 20:28:06 on 21-Sep-2026
CELL 0.71073 5.78803 5.96863 12.29941 90.0000 90.0000 90.0000
ZERR 4 0.00000 0.00000 0.00000 0.0000 0.0000 0.0000
LATT -1
SYMM X+1/2,-Y+1/2,-Z
SYMM -X,Y+1/2,-Z+1/2
SYMM -X+1/2,-Y,Z+1/2
SFAC C H N O
UNIT 12.0 28.0 4.0 8.0

L.S. 10
BOND $H
CONF
ACTA
FMAP 2
PLAN 20
TEMP -123.1

WGHT    0.135300    0.075300
FVAR       1.35642
O1    4    0.261072    1.054902    0.684193    11.00000    0.00750    0.02644 =
         0.01917   -0.00367   -0.00102   -0.00049
O2    4    0.125673    0.772845    0.583520    11.00000    0.01200    0.02521 =
         0.01665   -0.00444    0.00141    0.00134
N1    3   -0.316130    0.852447    0.637797    11.00000    0.00770    0.01508 =
         0.01409   -0.00124    0.00014    0.00029
AFIX 137
H1A   2   -0.461168    0.908210    0.646921    11.00000   -1.50000
H1B   2   -0.294039    0.735391    0.684050    11.00000   -1.50000
H1C   2   -0.298679    0.804661    0.568020    11.00000   -1.50000
AFIX   0
C2    1   -0.145021    1.029370    0.661156    11.00000    0.00689    0.01764 =
         0.01135   -0.00040   -0.00035    0.00083
AFIX  13
H2    2   -0.159134    1.073008    0.739373    11.00000   -1.20000
AFIX   0
C1    1    0.100519    0.943513    0.641000    11.00000    0.00960    0.01334 =
         0.00888    0.00180   -0.00001    0.00065
C3    1   -0.196781    1.235162    0.590766    11.00000    0.01197    0.01582 =
         0.02420    0.00299   -0.00005    0.00125
AFIX 137
H3A   2   -0.082117    1.352057    0.605567    11.00000   -1.50000
H3B   2   -0.351479    1.291766    0.607922    11.00000   -1.50000
H3C   2   -0.189851    1.193279    0.513793    11.00000   -1.50000
AFIX   0
HKLF 4




REM  CrystalPilot cross-check in P 21 21 21
REM wR2 = 0.2001, GooF = S = 1.222, Restrained GooF = 1.222 for all data
REM R1 = 0.0442 for 966 Fo > 4sig(Fo) and 0.0652 for all 1055 data
REM 57 parameters refined using 0 restraints

END  
     
WGHT      0.1393      0.0000 

REM Highest difference peak  0.890,  deepest hole -0.759,  1-sigma level  0.262
Q1    1  -0.2538  0.7578  0.7826  11.00000  0.05    0.89
Q2    1  -0.3907  0.7745  0.7683  11.00000  0.05    0.76
Q3    1  -0.0979  0.7748  0.7659  11.00000  0.05    0.69
Q4    1   0.2911  0.5833  0.6020  11.00000  0.05    0.68
Q5    1   0.2129  0.8754  0.7363  11.00000  0.05    0.57
Q6    1  -0.5625  0.8180  0.7483  11.00000  0.05    0.48
Q7    1  -0.4634  1.0355  0.5345  11.00000  0.05    0.47
Q8    1  -0.1739  1.1109  0.6164  11.00000  0.05    0.46
Q9    1  -0.2650  1.0087  0.4936  11.00000  0.05    0.43
Q10   1  -0.3066  0.7748  0.6592  11.00000  0.05    0.42
Q11   1   0.1156  1.0621  0.5321  11.00000  0.05    0.42
Q12   1  -0.0311  1.5371  0.5476  11.00000  0.05    0.42
Q13   1  -0.1669  1.4763  0.4962  11.00000  0.05    0.41
Q14   1   0.3004  0.9929  0.5592  11.00000  0.05    0.39
Q15   1   0.2117  0.9698  0.5003  11.00000  0.05    0.37
Q16   1  -0.0447  1.0678  0.5545  11.00000  0.05    0.37
Q17   1   0.3236  0.9594  0.6335  11.00000  0.05    0.33
Q18   1   0.1879  1.1419  0.5953  11.00000  0.05    0.32
Q19   1   0.0351  0.9700  0.4787  11.00000  0.05    0.30
Q20   1   0.1468  0.9373  0.6047  11.00000  0.05    0.27
