TITL CrystalPilot cross-check in P 6/m m m
    job.res
    created by SHELXL-2019/3 at 19:41:07 on 21-Sep-2026
CELL 0.68883 39.19000 39.19000 16.61000 90.0000 90.0000 120.0000
ZERR 24 0.00000 0.00000 0.00000 0.0000 0.0000 0.0000
LATT 1
SYMM X-Y,X,Z
SYMM Y,-X+Y,Z
SYMM -Y,X-Y,Z
SYMM -X+Y,-X,Z
SYMM X-Y,-Y,-Z
SYMM -X,-X+Y,-Z
SYMM -X,-Y,Z
SYMM Y,X,-Z
SYMM -Y,-X,-Z
SYMM -X+Y,Y,-Z
SYMM X,X-Y,-Z
SFAC C O Zr
REM DISP lambda 0.68883 A is not a SHELXL built-in line (Cu/Mo/Ag K-alpha):
REM DISP f'/f'' from cctbx (sasaki: C O Zr), mu = NIST attenuation in
REM DISP barn/atom
DISP $C 0.002 0.002 10.99
DISP $O 0.007 0.006 30.28
DISP $Zr -9.041 2.772 14341.91
UNIT 528.0 112.0 18.0

L.S. 6
BOND $H
CONF
ACTA
FMAP 2
PLAN 20

SHEL 999 1.000

WGHT    0.100000
FVAR       0.05076
ZR01  3    0.463892    0.536108    0.500000    10.25000    0.08432    0.08432 =
         0.06617    0.00000    0.00000    0.05379
ZR02  3    0.544741    0.544741    0.393866    10.50000    0.09080    0.09080 =
         0.08192    0.01363    0.01363    0.05758
O003  2    0.481536    0.586514    0.582177    11.00000    0.10742    0.10466 =
         0.08432   -0.00852   -0.00726    0.07072
O004  2    0.534148    0.592868    0.649759    11.00000    0.11317    0.12100 =
         0.12797   -0.04081   -0.02682    0.07556
O005  2    0.527386    0.563482    0.500000    10.50000    0.13185    0.23385 =
         0.10701    0.00000    0.00000    0.12825
O006  2    0.538461    0.538461    0.261419    10.50000    0.20452    0.20452 =
         0.07774    0.01224    0.01224    0.16159
O007  2    0.600935    0.600935    0.413441    10.50000    0.09323    0.09323 =
         0.29760    0.01075    0.01075    0.04247
O008  2    0.517568    0.482432    0.393727    10.50000    0.10937    0.10937 =
         0.13868    0.02324   -0.02324    0.05657
C009  1    0.508236    0.602080    0.633141    11.00000    0.11135    0.11384 =
         0.08850    0.00162   -0.00250    0.07273
C00A  1    0.504677    0.689371    0.780921    11.00000    0.28437    0.09986 =
         0.08134   -0.00446   -0.00767    0.13122
O00B  1    0.477368    0.641796    0.673737    11.00000    0.16439    0.11132 =
         0.11025   -0.02890   -0.01456    0.09136
C00C  1    0.508246    0.633334    0.686823    11.00000    0.14158    0.08957 =
         0.12103   -0.00802   -0.00219    0.07987
O00D  1    0.474329    0.669378    0.723703    11.00000    0.20482    0.11383 =
         0.10548   -0.03669   -0.02472    0.08917
C00E  1    0.503863    0.720279    0.832723    11.00000    0.24344    0.10349 =
         0.10204   -0.00635   -0.00526    0.11668
O00F  1    0.503050    0.751525    0.790369    10.50000    0.22201    0.11204 =
         0.11636   -0.01660   -0.03321    0.11100
O00G  1    0.539269    0.652477    0.742453    11.00000    0.18840    0.11707 =
         0.10635   -0.04820   -0.06050    0.08782
C00H  1    0.503703    0.720133    0.915455    11.00000    0.25186    0.12117 =
         0.05773   -0.02231   -0.01274    0.10286
C00I  1    0.500931    0.750466    0.956260    10.50000    0.26395    0.12651 =
         0.07549   -0.01004   -0.02009    0.13198
O00J  1    0.538890    0.682458    0.791984    11.00000    0.28184    0.14258 =
         0.11186   -0.00263   -0.01809    0.15679
O00L  1    0.503842    0.686823    0.958504    11.00000    0.29122    0.14037 =
         0.09201    0.02902    0.01661    0.14728
C00M  1    0.737040    0.531998    0.500000    10.50000    0.28751
C00O  1    0.697911    0.697911    1.236308    10.50000    2.00000
C00P  1    0.746497    0.373248    0.500000    10.25000    0.89640
C00Q  1    0.800357    0.400178    0.500000    10.25000    0.40604
C00R  1    0.596871    0.675066    0.000000    10.50000    0.36836
C00S  1    0.702151    0.558358    0.500000    10.50000    0.41072
C00T  1    0.550516    0.449484    0.164063    10.50000    0.66265
C00U  1    0.662515    0.582651    0.500000    10.50000    0.38620
C00V  1    0.712610    0.425220    0.500000    10.25000    0.57507
C00W  1    1.000000    1.000000    0.036461    10.08333    0.95717
C00X  1    0.690164    0.619247    0.500000    10.50000    1.48226
C00Y  1    0.572927    0.637476    0.065591    11.00000    1.05070
C00Z  1    0.486637    0.416599    0.123093    11.00000    0.86433
C010  1    0.786107    0.572213    0.500000    10.25000    1.51992
C011  1    0.961194    0.922388    0.500000    10.25000    1.83755
O012  2    0.645618    0.645618    0.245554    10.50000    0.69209
C013  1    0.621424    0.378576    0.130603    10.50000    0.52287
C014  1    0.917182    0.834364    0.633126    10.50000    1.18720
O015  2    0.666667    0.333333    0.186200    10.16667    1.37622
C016  1    1.000000    1.000000    0.363782    10.08333   -0.00100
C018  1    1.000000    1.000000    1.276690    10.08333    2.00000
C019  1    0.747550    0.454443    0.500000    10.50000    0.59234
C01B  1    0.905905    0.811809    0.788211    10.50000    1.44789
C01C  1    0.797638    0.398819    0.569814    10.50000    0.99986
C01D  1    0.734426    0.587336    0.600444    11.00000    0.75257
C01E  1    0.965001    0.515497    0.500000    10.50000    0.62774
HKLF 4




REM  CrystalPilot cross-check in P 6/m m m
REM wR2 = 0.4147, GooF = S = 2.019, Restrained GooF = 2.019 for all data
REM R1 = 0.1622 for 2063 Fo > 4sig(Fo) and 0.2518 for all 4395 data
REM 227 parameters refined using 0 restraints

END  
     
WGHT      0.2000      0.0000 

REM Highest difference peak  1.572,  deepest hole -4.311,  1-sigma level  0.127
Q1    1   0.5724  0.4276  0.1388  10.50000  0.05    1.57
Q2    1   0.5945  0.4055  0.0980  10.50000  0.05    1.33
Q3    1   0.6171  0.6171  0.5000  10.25000  0.05    0.80
Q4    1   0.5555  0.5555  0.3848  10.50000  0.05    0.64
Q5    1   0.5295  0.4705  0.2124  10.50000  0.05    0.64
Q6    1   0.5000  0.5000  0.1513  10.25000  0.05    0.55
Q7    1   0.7775  0.3887  0.5000  10.25000  0.05    0.45
Q8    1   0.9209  0.8419  0.5000  10.25000  0.05    0.44
Q9    1   0.5906  0.6455  0.0790  11.00000  0.05    0.44
Q10   1   0.5000  0.5000  0.2348  10.25000  0.05    0.43
Q11   1   0.6533  0.6533  0.5000  10.25000  0.05    0.43
Q12   1   0.6109  0.6109  0.1911  10.50000  0.05    0.43
Q13   1   1.0000  1.0000  1.1873  10.08333  0.05    0.43
Q14   1   0.5844  0.6573  0.0000  10.50000  0.05    0.41
Q15   1   0.6046  0.3023  0.1434  10.50000  0.05    0.41
Q16   1   0.6866  0.6170  0.5998  11.00000  0.05    0.36
Q17   1   0.7508  0.5539  0.5805  11.00000  0.05    0.35
Q18   1   1.0163  1.0163  1.2483  10.50000  0.05    0.35
Q19   1   0.5959  0.7229  0.0000  10.50000  0.05    0.35
Q20   1   0.7096  0.7096  0.5000  10.25000  0.05    0.35
