TITL CrystalPilot n0029 in P 6/m m m
REM CrystalPilot node n0029 tool=run_shelxl
REM R1 = 0.1398 wR2 = 0.364 GooF = 1.738
CELL 0.68883 39.19000 39.19000 16.61000 90.0000 90.0000 120.0000
ZERR 24 0.00000 0.00000 0.00000 0.0000 0.0000 0.0000
LATT 1
SYMM X-Y,X,Z
SYMM Y,-X+Y,Z
SYMM -Y,X-Y,Z
SYMM -X+Y,-X,Z
SYMM X-Y,-Y,-Z
SYMM -X,-X+Y,-Z
SYMM -X,-Y,Z
SYMM Y,X,-Z
SYMM -Y,-X,-Z
SYMM -X+Y,Y,-Z
SYMM X,X-Y,-Z
SFAC C O Zr
REM DISP lambda 0.68883 A is not a SHELXL built-in line (Cu/Mo/Ag K-alpha):
REM DISP f'/f'' from cctbx (sasaki: C O Zr), mu = NIST attenuation in
REM DISP barn/atom
DISP $C 0.002 0.002 10.99
DISP $O 0.007 0.006 30.28
DISP $Zr -9.041 2.772 14341.91
UNIT 558.0 112.0 18.0

SHEL 999 1.000

WGHT 0.100000 0.000000
FVAR 0.05176
ZR01  3   0.463904   0.536096   0.500000    10.25000     0.08628     0.08628 =
      0.06722     0.00000     0.00000     0.05458
ZR02  3   0.544756   0.544756   0.393754    10.50000     0.09332     0.09332 =
      0.08450     0.01331     0.01331     0.05921
O003  2   0.481034   0.586188   0.581471    11.00000     0.10443     0.12044 =
      0.09102    -0.00271    -0.00824     0.07774
O004  2   0.533648   0.593058   0.649600    11.00000     0.11553     0.11496 =
      0.12269    -0.03917    -0.02275     0.06451
O005  2   0.526143   0.562470   0.500000    10.50000     0.13606     0.23288 =
      0.10340     0.00000     0.00000     0.12878
O006  2   0.538426   0.538426   0.261523    10.50000     0.20793     0.20793 =
      0.08698     0.01931     0.01931     0.15969
O007  2   0.601128   0.601128   0.412230    10.50000     0.09754     0.09754 =
      0.26840     0.00216     0.00216     0.04707
O008  2   0.517434   0.482566   0.393979    10.50000     0.11325     0.11325 =
      0.15713     0.02526    -0.02526     0.05666
C009  1   0.507178   0.601692   0.633333    11.00000     0.10179     0.12455 =
      0.11125     0.01378    -0.00417     0.08335
C00A  1   0.506393   0.690312   0.781571    11.00000     0.23823     0.11608 =
      0.07544     0.00320    -0.00787     0.11021
O00B  1   0.477522   0.641569   0.673684    11.00000     0.16876     0.11089 =
      0.12182    -0.02663    -0.00267     0.10150
C00C  1   0.507265   0.632445   0.686976    11.00000     0.15637     0.09376 =
      0.12053    -0.02189    -0.01268     0.09012
O00D  1   0.475834   0.669359   0.723263    11.00000     0.20566     0.12200 =
      0.11054    -0.01247    -0.01906     0.10888
C00E  1   0.505334   0.722204   0.831419    11.00000     0.22899     0.11026 =
      0.10550    -0.03800    -0.01056     0.11401
O00F  1   0.505457   0.752729   0.785023    10.50000     0.24104     0.08701 =
      0.15154    -0.01545    -0.03090     0.12052
O00G  1   0.538932   0.652619   0.742091    11.00000     0.18638     0.11119 =
      0.09628    -0.04455    -0.03678     0.08279
C00H  1   0.505609   0.721474   0.914272    11.00000     0.24559     0.11853 =
      0.06242    -0.01974    -0.00294     0.11462
C00I  1   0.505479   0.752740   0.956451    10.50000     0.24201     0.11973 =
      0.07923    -0.00993    -0.01987     0.12101
O00J  1   0.538938   0.681922   0.792286    11.00000     0.24969     0.13692 =
      0.12457    -0.00273    -0.02533     0.13797
O00K  2   0.569373   0.430627   0.134968    10.50000     0.28393
O00L  1   0.504557   0.687476   0.958368    11.00000     0.25820     0.13961 =
      0.09016     0.02246     0.01251     0.12369
C00M  1   0.737582   0.530694   0.500000    10.50000     0.28335
C00N  1   0.593831   0.406169   0.092259    10.50000     0.20541
C00O  1   0.625528   0.625528   0.484863    10.50000     1.09167
C00P  1   0.765427   0.382713   0.500000    10.25000     0.46562
C00Q  1   0.797406   0.398703   0.500000    10.25000     0.33842
C00R  1   0.594872   0.672419   0.000000    10.50000     0.33031
C00S  1   0.704854   0.566114   0.500000    10.50000     0.39653
C00T  1   0.542705   0.457295   0.211831    10.50000     0.40413
C00U  1   0.665753   0.588734   0.500000    10.50000     0.37685
C00V  1   0.714193   0.428385   0.500000    10.25000     0.65690
C00W  1   1.000000   1.000000   0.575464    10.08333     0.88246
C00X  1   0.738431   0.524902   0.500000    10.50000     1.74758
C00Y  1   0.584862   0.640600   0.072181    11.00000     0.84803
C00Z  1   0.497828   0.414264   0.119194    11.00000     0.93848
C010  1   0.739543   0.479086   0.500000    10.25000     0.09012
C011  1   0.951719   0.903437   0.500000    10.25000     1.30459
C013  1   0.530941   0.469059   0.114367    10.50000     2.00000
C014  1   0.915880   0.831760   0.570926    10.50000     2.00000
O015  2   0.666667   0.333333   0.124552    10.16667     1.06376
C016  1   1.000000   1.000000  -0.705023    10.08333     1.77718
C017  1   0.533829   0.466171  -0.043021    10.50000     1.36557
C018  1   1.000000   1.000000  -0.118566    10.08333     2.00000
C019  1   0.698183   0.439997   0.500000    10.50000     1.32880
C01A  1   0.559769   0.440231   0.000000    10.25000     1.05693
C01B  1   0.931924   0.863848   0.728097    10.50000     1.31981
C01C  1   0.718013   0.359007   0.792658    10.50000     2.00000
C01D  1   0.755561   0.573346   0.598849    11.00000     0.71132
C01E  1   0.903485   0.615545   0.500000    10.50000     1.24313
HKLF 4
END
