TITL CrystalPilot n0032 in P 6/m m m
REM CrystalPilot node n0032 tool=edit_atoms
CELL 0.68883 39.19000 39.19000 16.61000 90.0000 90.0000 120.0000
ZERR 24 0.00000 0.00000 0.00000 0.0000 0.0000 0.0000
LATT 1
SYMM X-Y,X,Z
SYMM Y,-X+Y,Z
SYMM -Y,X-Y,Z
SYMM -X+Y,-X,Z
SYMM X-Y,-Y,-Z
SYMM -X,-X+Y,-Z
SYMM -X,-Y,Z
SYMM Y,X,-Z
SYMM -Y,-X,-Z
SYMM -X+Y,Y,-Z
SYMM X,X-Y,-Z
SFAC C O Zr
REM DISP lambda 0.68883 A is not a SHELXL built-in line (Cu/Mo/Ag K-alpha):
REM DISP f'/f'' from cctbx (sasaki: C O Zr), mu = NIST attenuation in
REM DISP barn/atom
DISP $C 0.002 0.002 10.99
DISP $O 0.007 0.006 30.28
DISP $Zr -9.041 2.772 14341.91
UNIT 264.0 96.0 18.0

SHEL 999 1.000

WGHT 0.100000 0.000000
FVAR 0.05146
ZR01  3   0.463835   0.536165   0.500000    10.25000     0.08664     0.08664 =
      0.06685     0.00000     0.00000     0.05480
ZR02  3   0.544739   0.544739   0.393713    10.50000     0.09267     0.09267 =
      0.08406     0.01368     0.01368     0.05893
O003  2   0.481260   0.586428   0.581178    11.00000     0.10557     0.10794 =
      0.09354    -0.00310    -0.00431     0.07257
O004  2   0.533910   0.592828   0.649892    11.00000     0.11516     0.11937 =
      0.12307    -0.04070    -0.02921     0.07170
O005  2   0.526661   0.562541   0.500000    10.50000     0.11986     0.22399 =
      0.10875     0.00000     0.00000     0.11536
O006  2   0.538267   0.538267   0.262137    10.50000     0.20326     0.20326 =
      0.08732     0.02037     0.02037     0.15809
O007  2   0.601029   0.601029   0.411655    10.50000     0.09298     0.09298 =
      0.28254     0.00827     0.00827     0.04372
O008  2   0.517261   0.482739   0.393078    10.50000     0.11772     0.11772 =
      0.15113     0.02723    -0.02723     0.06194
C009  1   0.507829   0.601595   0.634113    11.00000     0.10372     0.11140 =
      0.10641     0.00263    -0.00793     0.07074
C00A  1   0.505000   0.689858   0.780162    11.00000     0.24770     0.11311 =
      0.08676     0.00284    -0.00561     0.12755
O00B  1   0.477256   0.641379   0.673598    11.00000     0.16177     0.11845 =
      0.11398    -0.02339    -0.01098     0.10202
C00C  1   0.507310   0.632652   0.686587    11.00000     0.15077     0.09777 =
      0.10975    -0.01910    -0.01615     0.08440
O00D  1   0.474660   0.669158   0.722752    11.00000     0.21671     0.12802 =
      0.10392    -0.03247    -0.03446     0.10925
C00E  1   0.504988   0.721803   0.831666    11.00000     0.22633     0.11231 =
      0.09659    -0.02486    -0.01495     0.11723
O00F  1   0.504581   0.752290   0.787581    10.50000     0.21512     0.08984 =
      0.14596    -0.02337    -0.04673     0.10756
O00G  1   0.538043   0.652445   0.741619    11.00000     0.18213     0.11087 =
      0.10030    -0.04160    -0.03651     0.08159
C00H  1   0.504574   0.721260   0.914200    11.00000     0.25236     0.11525 =
      0.05850    -0.01455    -0.00667     0.10534
C00I  1   0.502754   0.751377   0.957567    10.50000     0.28108     0.11800 =
      0.07482    -0.01165    -0.02329     0.14054
O00J  1   0.537833   0.681877   0.791031    11.00000     0.25611     0.12728 =
      0.11027    -0.00340    -0.01521     0.13210
O00L  1   0.504724   0.687496   0.958527    11.00000     0.27992     0.15238 =
      0.08608     0.01881     0.01344     0.14499
HKLF 4
END
