TITL CrystalPilot cross-check in P 6/m m m
    job.res
    created by SHELXL-2019/3 at 19:52:51 on 21-Sep-2026
CELL 0.68883 39.19000 39.19000 16.61000 90.0000 90.0000 120.0000
ZERR 24 0.00000 0.00000 0.00000 0.0000 0.0000 0.0000
LATT 1
SYMM X-Y,X,Z
SYMM Y,-X+Y,Z
SYMM -Y,X-Y,Z
SYMM -X+Y,-X,Z
SYMM X-Y,-Y,-Z
SYMM -X,-X+Y,-Z
SYMM -X,-Y,Z
SYMM Y,X,-Z
SYMM -Y,-X,-Z
SYMM -X+Y,Y,-Z
SYMM X,X-Y,-Z
SFAC C H O Zr
REM DISP lambda 0.68883 A is not a SHELXL built-in line (Cu/Mo/Ag K-alpha):
REM DISP f'/f'' from cctbx (sasaki: C O Zr; henke: H), mu = NIST attenuation
REM DISP in barn/atom
DISP $C 0.002 0.002 10.99
DISP $H 0.000 0.000 0.62
DISP $O 0.007 0.006 30.28
DISP $Zr -9.041 2.772 14341.91
UNIT 264.0 105.6 96.0 18.0

L.S. 15
BOND $H
CONF
ACTA
FMAP 2
PLAN 20
ABIN

SHEL 999 1.000

SADI 0.020 C1 O2 C1B O2
SADI 0.020 C1 O1 C1B O1B
SADI 0.020 C1 C4 C1B C4B
SADI 0.020 C4 C8 C4B C8
SADI 0.020 C3 C4 C3B C4B
SADI 0.020 C3 C5 C3B C5
SADI 0.020 O1 ZR1 O1B ZR1
SADI 0.020 C1 C3 C1B C3B
SADI 0.020 C4 O1 C4B O1B
SIMU 0.040 0.080 C1 O1 C4 C3 C1B O1B C4B C3B

WGHT    0.100000
FVAR       0.05143   0.51401
ZR1   4    0.463838    0.536162    0.500000    10.25000    0.08811    0.08811 =
         0.06878    0.00000    0.00000    0.05628
ZR2   4    0.545015    0.545015    0.393639    10.50000    0.09186    0.09186 =
         0.08150    0.01243    0.01243    0.05744
PART 1
O1    3    0.478279    0.584186    0.586752    21.00000    0.07580
PART 0
O2    3    0.534234    0.593107    0.649340    11.00000    0.10460    0.11887 =
         0.12886   -0.04189   -0.02985    0.06935
O3    3    0.527667    0.564023    0.500000    10.50000    0.10135    0.18635 =
         0.10053    0.00000    0.00000    0.08934
O4    3    0.536181    0.536181    0.259555    10.50000    0.19727    0.19727 =
         0.08045    0.03955    0.03955    0.15524
O5    3    0.600106    0.600106    0.409969    10.50000    0.10708    0.10708 =
         0.24865    0.02616    0.02616    0.05539
O6    3    0.518171    0.481829    0.392863    10.50000    0.12741    0.12741 =
         0.13000    0.01665   -0.01665    0.08272
PART 1
C1    1    0.505768    0.598691    0.636963    21.00000    0.06631
PART 0
C2    1    0.505096    0.690046    0.780491    11.00000    0.21652    0.11417 =
         0.06877    0.00133   -0.02079    0.08582
PART 1
C3    1    0.481147    0.644792    0.668051    21.00000    0.05819
AFIX  43
H3    2    0.463838    0.634183    0.624892    21.00000   -1.20000
AFIX   0
C4    1    0.511423    0.636142    0.678627    21.00000    0.08547
PART 0
C5    1    0.477128    0.670130    0.724361    11.00000    0.17998    0.14127 =
         0.11960   -0.00221    0.00723    0.10860
AFIX  43
H5    2    0.454946    0.672946    0.722332    11.00000   -1.20000
AFIX   0
C6    1    0.505199    0.722269    0.830603    11.00000    0.22495    0.09673 =
         0.09215   -0.02398   -0.01747    0.10598
C7    1    0.505096    0.752548    0.792565    10.50000    0.26887    0.11563 =
         0.09693   -0.01746   -0.03492    0.13443
AFIX  43
H7    2    0.504944    0.752472    0.736575    10.50000   -1.20000
AFIX   0
C8    1    0.539791    0.652017    0.738912    11.00000    0.22229    0.08841 =
         0.11472   -0.05822   -0.05083    0.08386
C9    1    0.504474    0.722234    0.913331    11.00000    0.25251    0.10609 =
         0.08653    0.00524   -0.00560    0.11015
C10   1    0.504984    0.752492    0.956135    10.50000    0.28375    0.10796 =
         0.08422    0.00165    0.00329    0.14187
C11   1    0.537947    0.680306    0.787114    11.00000    0.23550    0.12649 =
         0.11721    0.00509   -0.05832    0.09919
AFIX  43
H11   2    0.557729    0.693763    0.824933    11.00000   -1.20000
AFIX   0
C12   1    0.504287    0.690338    0.959774    11.00000    0.31034    0.15572 =
         0.08569   -0.01098    0.00169    0.15430
AFIX  43
H12   2    0.504166    0.669547    0.932526    11.00000   -1.20000
AFIX   0
PART 2
C1B   1    0.512760    0.607628    0.630738   -21.00000    0.10175
O1B   3    0.486412    0.590345    0.577118   -21.00000    0.08732
C4B   1    0.503449    0.629523    0.695101   -21.00000    0.10435
C3B   1    0.469378    0.632284    0.688149   -21.00000    0.13194
PART 0
HKLF 4




REM  CrystalPilot cross-check in P 6/m m m
REM wR2 = 0.2425, GooF = S = 1.115, Restrained GooF = 1.115 for all data
REM R1 = 0.0876 for 2063 Fo > 4sig(Fo) and 0.1355 for all 4395 data
REM 152 parameters refined using 23 restraints

END  
     
WGHT      0.1529      0.0000 

REM Highest difference peak  0.526,  deepest hole -0.884,  1-sigma level  0.071
Q1    1   0.6139  0.6139  0.5000  10.25000  0.05    0.53
Q2    1   0.4512  0.5488  0.4614  10.50000  0.05    0.46
Q3    1   0.5000  0.5000  0.2203  10.25000  0.05    0.43
Q4    1   0.5478  0.5478  0.2068  10.50000  0.05    0.42
Q5    1   0.4489  0.6282  0.6506  11.00000  0.05    0.37
Q6    1   0.5398  0.5485  0.2776  11.00000  0.05    0.36
Q7    1   0.5485  0.5297  0.2203  11.00000  0.05    0.33
Q8    1   0.5553  0.5665  0.3569  11.00000  0.05    0.33
Q9    1   0.5620  0.5620  0.3566  10.50000  0.05    0.31
Q10   1   0.5617  0.6385  0.7261  11.00000  0.05    0.27
Q11   1   0.5314  0.6329  0.6861  11.00000  0.05    0.25
Q12   1   0.4728  0.6150  0.7057  11.00000  0.05    0.23
Q13   1   0.5375  0.6245  0.6138  11.00000  0.05    0.22
Q14   1   0.5415  0.6286  0.7019  11.00000  0.05    0.21
Q15   1   0.4613  0.6077  0.6093  11.00000  0.05    0.19
Q16   1   0.5627  0.5627  0.4270  10.50000  0.05    0.19
Q17   1   0.5386  0.6288  0.7975  11.00000  0.05    0.19
Q18   1   1.0000  1.0000  0.7849  10.08333  0.05    0.18
Q19   1   0.6127  0.6306  0.3993  11.00000  0.05    0.18
Q20   1   1.0000  1.0000  0.7018  10.08333  0.05    0.17
