TITL CrystalPilot n0021 in P 6/m m m
REM CrystalPilot node n0021 tool=run_shelxl
REM R1 = 0.1732 wR2 = 0.4438 GooF = 2.249
CELL 0.68883 39.19000 39.19000 16.61000 90.0000 90.0000 120.0000
ZERR 24 0.00000 0.00000 0.00000 0.0000 0.0000 0.0000
LATT 1
SYMM X-Y,X,Z
SYMM Y,-X+Y,Z
SYMM -Y,X-Y,Z
SYMM -X+Y,-X,Z
SYMM X-Y,-Y,-Z
SYMM -X,-X+Y,-Z
SYMM -X,-Y,Z
SYMM Y,X,-Z
SYMM -Y,-X,-Z
SYMM -X+Y,Y,-Z
SYMM X,X-Y,-Z
SFAC C O Zr
REM DISP lambda 0.68883 A is not a SHELXL built-in line (Cu/Mo/Ag K-alpha):
REM DISP f'/f'' from cctbx (sasaki: C O Zr), mu = NIST attenuation in
REM DISP barn/atom
DISP $C 0.002 0.002 10.99
DISP $O 0.007 0.006 30.28
DISP $Zr -9.041 2.772 14341.91
UNIT 522.0 124.0 18.0

SHEL 999 1.000

WGHT 0.100000 0.000000
FVAR 0.05083
ZR01  3   0.463852   0.536148   0.500000    10.25000     0.08494     0.08494 =
      0.06438     0.00000     0.00000     0.05380
ZR02  3   0.544771   0.544771   0.393642    10.50000     0.09130     0.09130 =
      0.08221     0.01355     0.01355     0.05785
O003  2   0.481600   0.586834   0.581725    11.00000     0.10639     0.10588 =
      0.09139     0.00040     0.00178     0.07283
O004  2   0.533902   0.593113   0.649098    11.00000     0.11814     0.11863 =
      0.12070    -0.03939    -0.03156     0.07236
O005  2   0.526587   0.562947   0.500000    10.50000     0.13075     0.21749 =
      0.10467     0.00000     0.00000     0.12427
O006  2   0.538527   0.538527   0.261893    10.50000     0.20100     0.20100 =
      0.09036     0.01395     0.01395     0.15869
O007  2   0.601220   0.601220   0.410568    10.50000     0.09710     0.09710 =
      0.25945     0.00862     0.00862     0.04529
O008  2   0.517601   0.482399   0.393195    10.50000     0.11306     0.11306 =
      0.15572     0.02360    -0.02360     0.06177
C009  1   0.508133   0.602203   0.634601    11.00000     0.10728     0.11158 =
      0.10149    -0.00490    -0.01837     0.07482
C00A  1   0.504614   0.690181   0.780596    11.00000     0.24400     0.12398 =
      0.08807     0.00382    -0.00769     0.13624
O00B  1   0.477200   0.641252   0.673813    11.00000     0.17113     0.12119 =
      0.10719    -0.02093    -0.00849     0.10608
C00C  1   0.507115   0.632380   0.686325    11.00000     0.13945     0.09176 =
      0.10993    -0.02451    -0.02151     0.07689
O00D  1   0.474799   0.669401   0.723300    11.00000     0.21905     0.12002 =
      0.10387    -0.03237    -0.03069     0.10535
C00E  1   0.505583   0.722142   0.831465    11.00000     0.24079     0.11140 =
      0.08957    -0.02920    -0.01661     0.12207
O00F  1   0.504701   0.752350   0.788616    10.50000     0.23299     0.09157 =
      0.13612    -0.01503    -0.03005     0.11649
O00G  1   0.538093   0.651854   0.741495    11.00000     0.18019     0.10620 =
      0.10547    -0.04505    -0.03466     0.08305
C00H  1   0.505541   0.721570   0.913256    11.00000     0.23352     0.12157 =
      0.06620    -0.02071    -0.00753     0.11512
C00I  1   0.505858   0.752929   0.956000    10.50000     0.21558     0.11323 =
      0.07799    -0.00265    -0.00529     0.10779
O00J  1   0.537269   0.681937   0.791037    11.00000     0.26915     0.13725 =
      0.10058     0.00575    -0.00534     0.13198
O00K  2   0.570638   0.429362   0.134688    10.50000     0.29290
O00L  1   0.503877   0.687483   0.959362    11.00000     0.29701     0.15515 =
      0.08173     0.01281     0.00820     0.15695
C00M  1   0.737265   0.533868   0.500000    10.50000     0.26059
C00N  1   0.593501   0.406499   0.096826    10.50000     0.20365
C00O  1   0.643754   0.643754   0.575864    10.50000     1.57562
C00P  1   0.752258   0.376129   0.500000    10.25000     0.60963
C00Q  1   0.794966   0.397483   0.500000    10.25000     0.36351
C00S  1   0.706231   0.564666   0.500000    10.50000     0.37888
C00T  1   0.540840   0.459160   0.216932    10.50000     0.43403
C00U  1   0.664157   0.588151   0.500000    10.50000     0.41003
C00V  1   0.707497   0.414994   0.500000    10.25000     0.76804
C00W  1   1.000000   1.000000   0.029665    10.08333     0.40390
C00X  1   0.686934   0.625596   0.500000    10.50000     0.93198
C00Z  1   0.466717   0.390937   0.073554    11.00000     1.19037
C010  1   0.734375   0.468750   0.500000    10.25000    -0.00100
C011  1   0.959474   0.918948   0.500000    10.25000     0.83115
O012  2   0.645762   0.645762   0.258303    10.50000     0.70108
C013  1   0.540301   0.459699   0.147888    10.50000     0.86728
C014  1   0.939237   0.878474   0.590752    10.50000     1.98843
O015  2   0.666667   0.333333   0.192334    10.16667     1.06179
C016  1   1.000000   1.000000   0.425835    10.08333     1.10246
C017  1   0.538881   0.461119  -0.041203    10.50000     0.13690
C018  1   1.000000   1.000000   0.756069    10.08333     1.43937
C019  1   0.749440   0.476233   0.500000    10.50000     0.89390
C01A  1   0.548420   0.451580   0.000000    10.25000     2.00000
C01B  1   0.938488   0.876976   0.726819    10.50000     1.24099
C01C  1   0.754803   0.377402   0.574008    10.50000     0.92777
C01D  1   0.750825   0.577181   0.595819    11.00000     0.68049
C01E  1   1.063108   0.580738   0.500000    10.50000     2.00000
HKLF 4
END
