TITL CrystalPilot n0034 in P 6/m m m
REM CrystalPilot node n0034 tool=run_shelxl
REM R1 = 0.182 wR2 = 0.4799 GooF = 2.37
CELL 0.68883 39.19000 39.19000 16.61000 90.0000 90.0000 120.0000
ZERR 24 0.00000 0.00000 0.00000 0.0000 0.0000 0.0000
LATT 1
SYMM X-Y,X,Z
SYMM Y,-X+Y,Z
SYMM -Y,X-Y,Z
SYMM -X+Y,-X,Z
SYMM X-Y,-Y,-Z
SYMM -X,-X+Y,-Z
SYMM -X,-Y,Z
SYMM Y,X,-Z
SYMM -Y,-X,-Z
SYMM -X+Y,Y,-Z
SYMM X,X-Y,-Z
SFAC C O Zr
REM DISP lambda 0.68883 A is not a SHELXL built-in line (Cu/Mo/Ag K-alpha):
REM DISP f'/f'' from cctbx (sasaki: C O Zr), mu = NIST attenuation in
REM DISP barn/atom
DISP $C 0.002 0.002 10.99
DISP $O 0.007 0.006 30.28
DISP $Zr -9.041 2.772 14341.91
UNIT 264.0 96.0 18.0

SHEL 999 1.000

WGHT 0.100000 0.000000
FVAR 0.04963
ZR1   3   0.463866   0.536134   0.500000    10.25000     0.08293     0.08293 =
      0.06136     0.00000     0.00000     0.05299
ZR2   3   0.544823   0.544823   0.393930    10.50000     0.08788     0.08788 =
      0.08164     0.01211     0.01211     0.05587
O1    2   0.481696   0.587074   0.581606    11.00000     0.10485     0.09644 =
      0.09147    -0.00030     0.00139     0.06859
O2    2   0.534010   0.593393   0.650907    11.00000     0.11343     0.11459 =
      0.12093    -0.03775    -0.02523     0.07232
O3    2   0.526495   0.562791   0.500000    10.50000     0.11584     0.21161 =
      0.08479     0.00000     0.00000     0.11107
O4    2   0.537311   0.537311   0.259594    10.50000     0.18844     0.18844 =
      0.07634     0.02334     0.02334     0.14672
O5    2   0.601017   0.601017   0.412307    10.50000     0.09204     0.09204 =
      0.28471     0.00475     0.00475     0.04513
O6    2   0.518025   0.481975   0.393157    10.50000     0.10333     0.10333 =
      0.17992     0.02679    -0.02679     0.05738
C1    1   0.508612   0.602770   0.633996    11.00000     0.11629     0.11546 =
      0.09265     0.00352    -0.00370     0.08444
C2    1   0.505910   0.690789   0.781699    11.00000     0.23290     0.12518 =
      0.07341     0.00750    -0.01231     0.11406
C3    1   0.477100   0.640598   0.673488    11.00000     0.19309     0.11247 =
      0.09280    -0.03589    -0.01369     0.10637
C4    1   0.509235   0.633305   0.686755    11.00000     0.15666     0.09203 =
      0.11745     0.00341     0.01257     0.09340
C5    1   0.475349   0.669923   0.722184    11.00000     0.19664     0.13302 =
      0.10070    -0.01014    -0.01354     0.10301
C6    1   0.505744   0.723159   0.830699    11.00000     0.22985     0.10273 =
      0.09238    -0.03865    -0.01276     0.10960
C7    1   0.504042   0.752021   0.788197    10.50000     0.24849     0.08138 =
      0.14179    -0.01722    -0.03445     0.12424
C8    1   0.541097   0.652111   0.740879    11.00000     0.19087     0.11527 =
      0.11414    -0.06397    -0.08070     0.07557
C9    1   0.504216   0.721669   0.914605    11.00000     0.23582     0.11108 =
      0.07090    -0.02082    -0.01498     0.10684
C10   1   0.503290   0.751645   0.956543    10.50000     0.24931     0.11068 =
      0.07710    -0.00620    -0.01240     0.12466
C11   1   0.539890   0.682387   0.791229    11.00000     0.25928     0.13755 =
      0.11409     0.00370    -0.02532     0.13274
C12   1   0.503458   0.687288   0.959688    11.00000     0.24734     0.14784 =
      0.08632     0.01689     0.00920     0.13580
HKLF 4
END
