TITL CrystalPilot n0010 in P 21 21 21
    verify_main.res
    created by SHELXL-2019/3 at 23:28:06 on 21-Sep-2026
REM CrystalPilot node n0010 tool=run_shelxl
REM R1 = 0.0457 wR2 = 0.2047 GooF = 1.271
CELL 0.71073 5.78803 5.96863 12.29941 90.0000 90.0000 90.0000
ZERR 4 0.00000 0.00000 0.00000 0.0000 0.0000 0.0000
LATT -1
SYMM X+1/2,-Y+1/2,-Z
SYMM -X,Y+1/2,-Z+1/2
SYMM -X+1/2,-Y,Z+1/2
SFAC C H N O
UNIT 12.0 28.0 4.0 8.0

EQIV $1 X-1, Y, Z
EQIV $2 -X, Y-1/2, -Z+3/2
EQIV $3 X-1/2, -Y+3/2, -Z+1
HTAB N1 O1_$1
HTAB N1 O1_$2
HTAB N1 O2_$3

WGHT    0.139300
FVAR       1.35685
O1    4    0.261020    1.054841    0.684218    11.00000    0.00753    0.02693 =
         0.01907   -0.00360   -0.00105   -0.00047
O2    4    0.125717    0.772997    0.583538    11.00000    0.01194    0.02615 =
         0.01662   -0.00439    0.00142    0.00125
N1    3   -0.316150    0.852836    0.637761    11.00000    0.00790    0.01469 =
         0.01405   -0.00114    0.00007    0.00039
AFIX 137
H1A   2   -0.457832    0.907147    0.647559    11.00000   -1.50000
H1B   2   -0.293639    0.737439    0.682348    11.00000   -1.50000
H1C   2   -0.300404    0.807502    0.569224    11.00000   -1.50000
AFIX   0
C2    1   -0.144978    1.028963    0.661183    11.00000    0.00693    0.01810 =
         0.01140   -0.00028   -0.00034    0.00100
AFIX  13
H2    2   -0.158777    1.071584    0.737856    11.00000   -1.20000
AFIX   0
C1    1    0.100501    0.943463    0.640968    11.00000    0.00972    0.01327 =
         0.00892    0.00198   -0.00007    0.00050
C3    1   -0.196927    1.235277    0.590775    11.00000    0.01192    0.01503 =
         0.02471    0.00294   -0.00012    0.00116
AFIX 137
H3A   2   -0.084589    1.349761    0.605298    11.00000   -1.50000
H3B   2   -0.348450    1.290687    0.607647    11.00000   -1.50000
H3C   2   -0.190228    1.194401    0.515351    11.00000   -1.50000
L.S. 0
AFIX   0
HKLF 4




REM  CrystalPilot n0010 in P 21 21 21
REM wR2 = 0.2041, GooF = S = 1.267, Restrained GooF = 1.267 for all data
REM R1 = 0.0452 for 966 Fo > 4sig(Fo) and 0.0663 for all 1055 data
REM 57 parameters refined using 0 restraints

END  
     
WGHT      0.1388      0.0000 
