TITL CrystalPilot cross-check in P 21 21 21
    job.res
    created by SHELXL-2019/3 at 20:19:13 on 21-Sep-2026
CELL 0.71073 5.78803 5.96863 12.29941 90.0000 90.0000 90.0000
ZERR 4 0.00000 0.00000 0.00000 0.0000 0.0000 0.0000
LATT -1
SYMM X+1/2,-Y+1/2,-Z
SYMM -X,Y+1/2,-Z+1/2
SYMM -X+1/2,-Y,Z+1/2
SFAC C H N O
UNIT 12.0 28.0 4.0 8.0

L.S. 10
BOND $H
CONF
ACTA
FMAP 2
PLAN 20
TEMP -123.1

WGHT    0.100000
FVAR       1.35511
O1    4    0.261019    1.054443    0.684170    11.00000    0.00688    0.02861 =
         0.01891   -0.00320   -0.00106   -0.00044
O2    4    0.125682    0.773295    0.583459    11.00000    0.01160    0.02720 =
         0.01648   -0.00398    0.00148    0.00132
N1    3   -0.316206    0.853349    0.637763    11.00000    0.00780    0.01409 =
         0.01382   -0.00105    0.00006    0.00027
AFIX 137
H1A   2   -0.460980    0.909582    0.647130    11.00000   -1.50000
H1B   2   -0.294341    0.735919    0.683815    11.00000   -1.50000
H1C   2   -0.299286    0.805944    0.567895    11.00000   -1.50000
AFIX   0
C2    1   -0.144961    1.028814    0.661107    11.00000    0.00659    0.01836 =
         0.01129   -0.00010   -0.00050    0.00127
AFIX  13
H2    2   -0.158983    1.072348    0.739341    11.00000   -1.20000
AFIX   0
C1    1    0.100542    0.943401    0.640898    11.00000    0.01034    0.01152 =
         0.00868    0.00181   -0.00007    0.00042
C3    1   -0.196797    1.235098    0.590747    11.00000    0.01156    0.01468 =
         0.02501    0.00312    0.00010    0.00088
AFIX 137
H3A   2   -0.082738    1.352317    0.605973    11.00000   -1.50000
H3B   2   -0.351894    1.291063    0.607595    11.00000   -1.50000
H3C   2   -0.188862    1.193651    0.513739    11.00000   -1.50000
AFIX   0
HKLF 4




REM  CrystalPilot cross-check in P 21 21 21
REM wR2 = 0.2105, GooF = S = 1.709, Restrained GooF = 1.709 for all data
REM R1 = 0.0491 for 966 Fo > 4sig(Fo) and 0.0702 for all 1055 data
REM 57 parameters refined using 0 restraints

END  
     
WGHT      0.1353      0.0753 

REM Highest difference peak  0.885,  deepest hole -0.770,  1-sigma level  0.263
Q1    1  -0.2539  0.7552  0.7837  11.00000  0.05    0.89
Q2    1  -0.3945  0.7753  0.7668  11.00000  0.05    0.77
Q3    1   0.2914  0.5837  0.6024  11.00000  0.05    0.70
Q4    1  -0.0944  0.7773  0.7691  11.00000  0.05    0.70
Q5    1   0.1961  0.5800  0.6152  11.00000  0.05    0.62
Q6    1   0.2145  0.8758  0.7357  11.00000  0.05    0.59
Q7    1  -0.3101  0.7793  0.6471  11.00000  0.05    0.53
Q8    1   0.1127  0.5485  0.5552  11.00000  0.05    0.52
Q9    1  -0.5631  0.8177  0.7477  11.00000  0.05    0.50
Q10   1  -0.5244  1.0192  0.5222  11.00000  0.05    0.48
Q11   1  -0.4663  1.0355  0.5326  11.00000  0.05    0.47
Q12   1  -0.1713  1.1084  0.6225  11.00000  0.05    0.47
Q13   1  -0.2612  1.0067  0.4935  11.00000  0.05    0.43
Q14   1   0.1179  1.0641  0.5321  11.00000  0.05    0.43
Q15   1  -0.0364  1.5366  0.5461  11.00000  0.05    0.42
Q16   1  -0.1661  1.4794  0.4970  11.00000  0.05    0.41
Q17   1  -0.6544  0.9856  0.5563  11.00000  0.05    0.40
Q18   1  -0.0422  1.0673  0.5554  11.00000  0.05    0.39
Q19   1   0.2116  0.9699  0.4999  11.00000  0.05    0.39
Q20   1   0.1873  1.1379  0.5955  11.00000  0.05    0.34
