TITL CrystalPilot cross-check in P 21 21 21
    job.res
    created by SHELXL-2019/3 at 20:18:44 on 21-Sep-2026
CELL 0.71073 5.78803 5.96863 12.29941 90.0000 90.0000 90.0000
ZERR 4 0.00000 0.00000 0.00000 0.0000 0.0000 0.0000
LATT -1
SYMM X+1/2,-Y+1/2,-Z
SYMM -X,Y+1/2,-Z+1/2
SYMM -X+1/2,-Y,Z+1/2
SFAC C N O
UNIT 12.0 4.0 8.0

L.S. 8
BOND $H
CONF
ACTA
FMAP 2
PLAN 20
TEMP -123.1

WGHT    0.100000
FVAR       1.33339
O1    3    0.260281    1.054459    0.683717    11.00000    0.00670    0.02691 =
         0.01849   -0.00318   -0.00136   -0.00002
O2    3    0.126957    0.773188    0.583590    11.00000    0.01012    0.02887 =
         0.01331   -0.00421    0.00249    0.00137
N1    2   -0.317589    0.853255    0.637965    11.00000    0.00839    0.01331 =
         0.01388   -0.00033   -0.00140    0.00006
C2    1   -0.144094    1.027728    0.661083    11.00000    0.00732    0.01684 =
         0.01299    0.00043   -0.00111    0.00314
C1    1    0.101942    0.943999    0.640729    11.00000    0.01010    0.00958 =
         0.00865    0.00225    0.00027   -0.00019
C3    1   -0.196090    1.235577    0.590174    11.00000    0.01164    0.01308 =
         0.02676    0.00383    0.00072    0.00138
HKLF 4




REM  CrystalPilot cross-check in P 21 21 21
REM wR2 = 0.2727, GooF = S = 2.243, Restrained GooF = 2.243 for all data
REM R1 = 0.0758 for 966 Fo > 4sig(Fo) and 0.0947 for all 1055 data
REM 55 parameters refined using 0 restraints

END  
     
WGHT      0.1732      0.4412 

REM Highest difference peak  1.177,  deepest hole -0.761,  1-sigma level  0.267
Q1    1  -0.2896  0.7558  0.6969  11.00000  0.05    1.18
Q2    1   0.2448  1.2572  0.7147  11.00000  0.05    0.82
Q3    1  -0.1702  1.0752  0.6540  11.00000  0.05    0.75
Q4    1  -0.1585  1.0841  0.7380  11.00000  0.05    0.70
Q5    1   0.2920  0.5796  0.6056  11.00000  0.05    0.70
Q6    1   0.3826  1.2727  0.7353  11.00000  0.05    0.69
Q7    1   0.2032  0.8829  0.7402  11.00000  0.05    0.60
Q8    1   0.0931  0.8715  0.6473  11.00000  0.05    0.53
Q9    1  -0.0606  1.4896  0.4820  11.00000  0.05    0.50
Q10   1  -0.1638  1.4856  0.5011  11.00000  0.05    0.49
Q11   1  -0.4732  1.0456  0.5408  11.00000  0.05    0.48
Q12   1   0.2098  0.5327  0.5183  11.00000  0.05    0.48
Q13   1   0.1395  0.5615  0.5505  11.00000  0.05    0.47
Q14   1  -0.5423  0.7988  0.7449  11.00000  0.05    0.47
Q15   1  -0.2211  1.0488  0.5028  11.00000  0.05    0.46
Q16   1   0.2219  0.9726  0.4971  11.00000  0.05    0.43
Q17   1  -0.4597  0.9171  0.6493  11.00000  0.05    0.43
Q18   1  -0.2912  1.0971  0.5461  11.00000  0.05    0.42
Q19   1  -0.0573  0.5327  0.5559  11.00000  0.05    0.40
Q20   1   0.0629  0.8066  0.7543  11.00000  0.05    0.39
