TITL CrystalPilot n0031 in P 6/m m m
REM CrystalPilot node n0031 tool=run_shelxl
REM R1 = 0.1302 wR2 = 0.344 GooF = 1.637
CELL 0.68883 39.19000 39.19000 16.61000 90.0000 90.0000 120.0000
ZERR 24 0.00000 0.00000 0.00000 0.0000 0.0000 0.0000
LATT 1
SYMM X-Y,X,Z
SYMM Y,-X+Y,Z
SYMM -Y,X-Y,Z
SYMM -X+Y,-X,Z
SYMM X-Y,-Y,-Z
SYMM -X,-X+Y,-Z
SYMM -X,-Y,Z
SYMM Y,X,-Z
SYMM -Y,-X,-Z
SYMM -X+Y,Y,-Z
SYMM X,X-Y,-Z
SFAC C O Zr
REM DISP lambda 0.68883 A is not a SHELXL built-in line (Cu/Mo/Ag K-alpha):
REM DISP f'/f'' from cctbx (sasaki: C O Zr), mu = NIST attenuation in
REM DISP barn/atom
DISP $C 0.002 0.002 10.99
DISP $O 0.007 0.006 30.28
DISP $Zr -9.041 2.772 14341.91
UNIT 558.0 120.0 18.0

SHEL 999 1.000

WGHT 0.100000 0.000000
FVAR 0.05196
ZR01  3   0.463848   0.536152   0.500000    10.25000     0.08633     0.08633 =
      0.06870     0.00000     0.00000     0.05476
ZR02  3   0.544787   0.544787   0.393759    10.50000     0.09340     0.09340 =
      0.08436     0.01408     0.01408     0.05941
O003  2   0.481287   0.586392   0.581610    11.00000     0.11155     0.10924 =
      0.09046     0.00083     0.00019     0.07531
O004  2   0.533949   0.592809   0.649907    11.00000     0.11459     0.11964 =
      0.12527    -0.04143    -0.03112     0.07128
O005  2   0.527050   0.562957   0.500000    10.50000     0.12338     0.21685 =
      0.10354     0.00000     0.00000     0.11262
O006  2   0.538394   0.538394   0.261731    10.50000     0.19737     0.19737 =
      0.09027     0.02492     0.02492     0.14882
O007  2   0.600864   0.600864   0.412141    10.50000     0.10026     0.10026 =
      0.26170    -0.00157    -0.00157     0.05026
O008  2   0.517606   0.482394   0.392535    10.50000     0.11622     0.11622 =
      0.15266     0.02639    -0.02639     0.06131
C009  1   0.508435   0.602039   0.634576    11.00000     0.10726     0.11589 =
      0.09977     0.00209    -0.01218     0.07356
C00A  1   0.505360   0.689903   0.781608    11.00000     0.24439     0.10924 =
      0.08080    -0.00298    -0.01286     0.11639
O00B  1   0.477174   0.641144   0.673141    11.00000     0.17232     0.12203 =
      0.11433    -0.02429    -0.00903     0.10851
C00C  1   0.507046   0.632426   0.686600    11.00000     0.15378     0.09298 =
      0.10935    -0.02398    -0.01825     0.08396
O00D  1   0.475465   0.669698   0.723603    11.00000     0.21301     0.12836 =
      0.10924    -0.02087    -0.02625     0.11434
C00E  1   0.505236   0.721547   0.831702    11.00000     0.24376     0.11140 =
      0.09504    -0.02403    -0.01379     0.12342
O00F  1   0.504803   0.752401   0.787798    10.50000     0.22786     0.10024 =
      0.12300    -0.01625    -0.03251     0.11393
O00G  1   0.538390   0.652124   0.742343    11.00000     0.17838     0.10694 =
      0.10211    -0.04003    -0.03323     0.07675
C00H  1   0.505024   0.720719   0.914372    11.00000     0.24793     0.12516 =
      0.06278    -0.01817    -0.00510     0.11285
C00I  1   0.505244   0.752622   0.957248    10.50000     0.24901     0.12308 =
      0.07541    -0.00301    -0.00603     0.12451
O00J  1   0.538027   0.681666   0.792639    11.00000     0.25317     0.13658 =
      0.12069    -0.00057    -0.02165     0.13774
O00K  2   0.570579   0.429421   0.135195    10.50000     0.28516
O00L  1   0.504730   0.687357   0.957947    11.00000     0.26395     0.14445 =
      0.09276     0.02735     0.01294     0.13257
C00M  1   0.737681   0.533186   0.500000    10.50000     0.27030
C00N  1   0.594173   0.405827   0.102580    10.50000     0.18870
C00O  1   0.627882   0.627882   0.556429    10.50000     1.07441
C00P  1   0.755732   0.377866   0.500000    10.25000     0.55179
C00Q  1   0.797300   0.398650   0.500000    10.25000     0.40234
C00R  1   0.593064   0.670969   0.000000    10.50000     0.33664
C00S  1   0.703945   0.560405   0.500000    10.50000     0.41136
C00T  1   0.538726   0.461274   0.202214    10.50000     0.40290
C00U  1   0.666518   0.589986   0.500000    10.50000     0.41862
C00V  1   0.714939   0.429878   0.500000    10.25000     0.70514
C00W  1   1.000000   1.000000   0.027216    10.08333     0.58830
C00X  1   0.712787   0.602646   0.500000    10.50000     1.42767
C00Y  1   0.590506   0.647381   0.081208    11.00000     0.91776
C00Z  1   0.484786   0.403282   0.096968    11.00000     0.73492
C010  1   0.751545   0.503091   0.500000    10.25000     1.02773
C011  1   0.927593   0.855185   0.500000    10.25000     2.00000
O012  2   0.642007   0.642007   0.237127    10.50000     0.65005
C013  1   0.549333   0.450667   0.084109    10.50000     0.73584
C014  1   0.933628   0.867255   0.562654    10.50000     1.32813
C016  1   1.000000   1.000000   0.526188    10.08333     0.60105
C017  1   0.543976   0.456024  -0.180635    10.50000     1.95813
C018  1   1.000000   1.000000   0.754097    10.08333     2.00000
C019  1   0.737818   0.461467   0.500000    10.50000     0.90581
C01A  1   0.585350   0.414650   0.000000    10.25000     0.18501
C01B  1   0.930187   0.860375   0.732698    10.50000     1.22852
C01C  1   0.790299   0.395149   0.571585    10.50000     1.74434
C01D  1   0.754095   0.574970   0.594403    11.00000     0.64782
C01E  1   0.938162   0.496716   0.500000    10.50000     1.57032
HKLF 4
END
