TITL CrystalPilot cross-check in P 6/m m m
    job.res
    created by SHELXL-2019/3 at 19:46:08 on 21-Sep-2026
CELL 0.68883 39.19000 39.19000 16.61000 90.0000 90.0000 120.0000
ZERR 24 0.00000 0.00000 0.00000 0.0000 0.0000 0.0000
LATT 1
SYMM X-Y,X,Z
SYMM Y,-X+Y,Z
SYMM -Y,X-Y,Z
SYMM -X+Y,-X,Z
SYMM X-Y,-Y,-Z
SYMM -X,-X+Y,-Z
SYMM -X,-Y,Z
SYMM Y,X,-Z
SYMM -Y,-X,-Z
SYMM -X+Y,Y,-Z
SYMM X,X-Y,-Z
SFAC C H O Zr
REM DISP lambda 0.68883 A is not a SHELXL built-in line (Cu/Mo/Ag K-alpha):
REM DISP f'/f'' from cctbx (sasaki: C O Zr; henke: H), mu = NIST attenuation
REM DISP in barn/atom
DISP $C 0.002 0.002 10.99
DISP $H 0.000 0.000 0.62
DISP $O 0.007 0.006 30.28
DISP $Zr -9.041 2.772 14341.91
UNIT 264.0 132.0 96.0 18.0

L.S. 12
BOND $H
CONF
ACTA
FMAP 2
PLAN 20

SHEL 999 1.000

SADI 0.020 O4 ZR2 O4B ZR2
SIMU 0.040 0.080 O4 O4B
SADI 0.020 O5 ZR2 O5B ZR2
SIMU 0.040 0.080 O5 O5B

WGHT    0.100000
FVAR       0.04930   0.98502   0.97481
ZR1   4    0.463852    0.536148    0.500000    10.25000    0.08210    0.08210 =
         0.06187    0.00000    0.00000    0.05267
ZR2   4    0.544854    0.544854    0.394017    10.50000    0.08711    0.08711 =
         0.08020    0.01207    0.01207    0.05533
O1    3    0.481378    0.586819    0.581017    11.00000    0.10306    0.10074 =
         0.09122   -0.00078   -0.00123    0.07146
O2    3    0.533894    0.593341    0.650858    11.00000    0.11548    0.11357 =
         0.11676   -0.03632   -0.02058    0.07263
O3    3    0.526244    0.562839    0.500000    10.50000    0.11588    0.19708 =
         0.08469    0.00000    0.00000    0.10549
PART 1
O4    3    0.537566    0.537566    0.259030    20.50000    0.11777
O5    3    0.601422    0.601422    0.411627    30.50000    0.13826
PART 0
O6    3    0.518000    0.482000    0.393036    10.50000    0.10627    0.10627 =
         0.17183    0.02663   -0.02663    0.06196
C1    1    0.508153    0.602348    0.633533    11.00000    0.12217    0.11441 =
         0.09100    0.00996    0.00853    0.09165
C2    1    0.506244    0.691347    0.782466    11.00000    0.22022    0.13013 =
         0.07513    0.00816   -0.02301    0.10741
C3    1    0.478154    0.641236    0.674891    11.00000    0.19443    0.11432 =
         0.09476   -0.05438   -0.03654    0.10389
AFIX  43
H3    2    0.458966    0.627757    0.635984    11.00000   -1.20000
AFIX   0
C4    1    0.509032    0.632912    0.686220    11.00000    0.14628    0.09552 =
         0.10830    0.00460    0.00662    0.08939
C5    1    0.476662    0.670167    0.723088    11.00000    0.18831    0.14316 =
         0.11598   -0.00998   -0.01533    0.11581
AFIX  43
H5    2    0.456230    0.675485    0.716114    11.00000   -1.20000
AFIX   0
C6    1    0.505715    0.723176    0.831230    11.00000    0.24265    0.10189 =
         0.09318   -0.04097   -0.01725    0.11686
C7    1    0.504559    0.752279    0.790287    10.50000    0.28883    0.09235 =
         0.11874   -0.02176   -0.04352    0.14441
AFIX  43
H7    2    0.502979    0.751490    0.734390    10.50000   -1.20000
AFIX   0
C8    1    0.539759    0.652241    0.740485    11.00000    0.17787    0.11275 =
         0.13135   -0.07090   -0.08144    0.08155
AFIX  43
H8    2    0.560052    0.646533    0.744516    11.00000   -1.20000
AFIX   0
C9    1    0.504563    0.722117    0.914423    11.00000    0.22598    0.10354 =
         0.07642   -0.01730   -0.01291    0.10227
C10   1    0.503977    0.751989    0.956415    10.50000    0.23186    0.10610 =
         0.07593   -0.00268   -0.00536    0.11593
C11   1    0.538448    0.681326    0.789664    11.00000    0.26416    0.12875 =
         0.11236   -0.01788   -0.06164    0.12065
AFIX  43
H11   2    0.558229    0.694588    0.827584    11.00000   -1.20000
AFIX   0
C12   1    0.504000    0.688707    0.960663    11.00000    0.25698    0.14850 =
         0.08441    0.00497    0.01019    0.14092
AFIX  43
H12   2    0.503652    0.667922    0.932923    11.00000   -1.20000
AFIX   0
PART 2
O4B   3    0.500000    0.500000    0.308239   -20.50000    0.09759
O5B   3    0.580160    0.580160    0.500000   -30.50000    0.18582
PART 0
HKLF 4




REM  CrystalPilot cross-check in P 6/m m m
REM wR2 = 0.4782, GooF = S = 2.360, Restrained GooF = 2.359 for all data
REM R1 = 0.1846 for 2063 Fo > 4sig(Fo) and 0.2686 for all 4395 data
REM 155 parameters refined using 4 restraints

END  
     
WGHT      0.2000      0.0000 

REM Highest difference peak  1.523,  deepest hole -1.159,  1-sigma level  0.167
Q1    1   0.4287  0.5713  0.8599  10.50000  0.05    1.52
Q2    1   0.4050  0.5950  0.8990  10.50000  0.05    1.30
Q3    1   0.3947  0.6053  0.5000  10.25000  0.05    0.98
Q4    1   0.5901  0.6640  1.0000  10.50000  0.05    0.96
Q5    1   0.5373  0.7976  0.5000  10.50000  0.05    0.93
Q6    1   0.6108  0.6108  0.5000  10.25000  0.05    0.82
Q7    1   0.4670  0.5330  0.2166  10.50000  0.05    0.81
Q8    1   0.5000  0.5000  0.2437  10.25000  0.05    0.80
Q9    1   0.6722  0.5844  0.5000  10.50000  0.05    0.70
Q10   1   0.5563  0.7020  0.5000  10.50000  0.05    0.67
Q11   1   1.0000  1.0000  0.3944  10.08333  0.05    0.64
Q12   1   0.6567  0.6567  0.2605  10.50000  0.05    0.59
Q13   1   0.5000  0.5000  0.1521  10.25000  0.05    0.58
Q14   1   0.5868  0.6453  0.9346  11.00000  0.05    0.56
Q15   1   0.4498  0.7249  0.5394  10.50000  0.05    0.56
Q16   1   0.6150  0.6150  0.8099  10.50000  0.05    0.53
Q17   1   0.3948  0.6974  0.8547  10.50000  0.05    0.53
Q18   1   0.5518  0.5518  0.2763  10.50000  0.05    0.53
Q19   1   0.5377  0.5769  0.1500  11.00000  0.05    0.49
Q20   1   0.5857  0.5960  0.1406  11.00000  0.05    0.49
