TITL CrystalPilot n0049 in P 6/m m m
REM CrystalPilot node n0049 tool=add_hydrogens
CELL 0.68883 39.19000 39.19000 16.61000 90.0000 90.0000 120.0000
ZERR 24 0.00000 0.00000 0.00000 0.0000 0.0000 0.0000
LATT 1
SYMM X-Y,X,Z
SYMM Y,-X+Y,Z
SYMM -Y,X-Y,Z
SYMM -X+Y,-X,Z
SYMM X-Y,-Y,-Z
SYMM -X,-X+Y,-Z
SYMM -X,-Y,Z
SYMM Y,X,-Z
SYMM -Y,-X,-Z
SYMM -X+Y,Y,-Z
SYMM X,X-Y,-Z
SFAC C H O Zr
REM DISP lambda 0.68883 A is not a SHELXL built-in line (Cu/Mo/Ag K-alpha):
REM DISP f'/f'' from cctbx (sasaki: C O Zr; henke: H), mu = NIST attenuation
REM DISP in barn/atom
DISP $C 0.002 0.002 10.99
DISP $H 0.000 0.000 0.62
DISP $O 0.007 0.006 30.28
DISP $Zr -9.041 2.772 14341.91
UNIT 264.0 112.8 96.0 18.0

SHEL 999 1.000

SADI 0.020 C1 O2 C1B O2
SADI 0.020 C1 O1 C1B O1B
SADI 0.020 C1 C4 C1B C4B
SADI 0.020 C4 C8 C4B C8
SADI 0.020 C3 C4 C3B C4B
SADI 0.020 C3 C5 C3B C5
SADI 0.020 O1 ZR1 O1B ZR1
SADI 0.020 C1 C3 C1B C3B
SADI 0.020 C4 O1 C4B O1B
SIMU 0.040 0.080 C1 O1 C4 C3 C1B O1B C4B C3B

WGHT 0.100000 0.000000
FVAR 0.05143 0.90000
ZR1   4   0.463824   0.536176   0.500000    10.25000     0.08800     0.08800 =
      0.06886     0.00000     0.00000     0.05616
ZR2   4   0.545032   0.545032   0.393644    10.50000     0.09168     0.09168 =
      0.08167     0.01240     0.01240     0.05709
PART 1
O1    3   0.482350   0.587286   0.582407    21.00000     0.09015
PART 0
O2    3   0.534245   0.593128   0.649693    11.00000     0.10539     0.12049 =
      0.12568    -0.04075    -0.03404     0.06958
O3    3   0.527555   0.564012   0.500000    10.50000     0.10185     0.18609 =
      0.09851     0.00000     0.00000     0.08943
O4    3   0.536260   0.536260   0.259685    10.50000     0.19496     0.19496 =
      0.07970     0.03825     0.03825     0.15239
O5    3   0.600145   0.600145   0.409943    10.50000     0.11065     0.11065 =
      0.24701     0.02692     0.02692     0.05906
O6    3   0.518191   0.481809   0.392856    10.50000     0.12943     0.12943 =
      0.12912     0.01571    -0.01571     0.08413
PART 1
C1    1   0.509379   0.602940   0.634916    21.00000     0.09476
PART 0
C2    1   0.505093   0.690052   0.780233    11.00000     0.21733     0.11457 =
      0.06946     0.00068    -0.02052     0.09205
PART 1
C3    1   0.477591   0.640775   0.675933    21.00000     0.12119
AFIX 43
H3    2   0.458038   0.627300   0.637690    21.00000    -1.20000
AFIX 0
C4    1   0.507797   0.632693   0.685890    21.00000     0.11357
PART 0
C5    1   0.476932   0.669555   0.724337    11.00000     0.17999     0.14756 =
      0.11260    -0.00285     0.00303     0.11203
AFIX 43
H5    2   0.456457   0.674860   0.718029    11.00000    -1.20000
AFIX 0
C6    1   0.505219   0.722137   0.830605    11.00000     0.22639     0.09775 =
      0.08996    -0.02241    -0.01565     0.10682
C7    1   0.505124   0.752562   0.792810    10.50000     0.26570     0.11762 =
      0.09382    -0.01699    -0.03398     0.13285
AFIX 43
H7    2   0.504983   0.752492   0.736820    10.50000    -1.20000
AFIX 0
C8    1   0.537887   0.652272   0.739558    11.00000     0.23088     0.10594 =
      0.11663    -0.06443    -0.05632     0.10656
C9    1   0.504645   0.722227   0.913193    11.00000     0.25395     0.10758 =
      0.08613     0.00504    -0.00448     0.11267
C10   1   0.505063   0.752532   0.955916    10.50000     0.28069     0.10819 =
      0.08443     0.00126     0.00252     0.14034
C11   1   0.537552   0.680537   0.787908    11.00000     0.24214     0.12362 =
      0.10881    -0.00456    -0.05408     0.10642
AFIX 43
H11   2   0.557505   0.693802   0.825491    11.00000    -1.20000
AFIX 0
C12   1   0.504494   0.690291   0.959583    11.00000     0.31074     0.15672 =
      0.08532    -0.01008     0.00070     0.15587
AFIX 43
H12   2   0.504396   0.669519   0.932301    11.00000    -1.20000
AFIX 0
PART 2
C1B   1   0.539200   0.626300   0.607700   -21.00000     0.09476
AFIX 23
H1BA  2   0.519726   0.624161   0.568898   -21.00000    -1.20000
H1BB  2   0.564905   0.645925   0.587794   -21.00000    -1.20000
AFIX 0
O1B   3   0.464100   0.604300   0.600400   -21.00000     0.09015
C4B   1   0.530600   0.622200   0.693600   -21.00000     0.11357
AFIX 13
H4B   2   0.517250   0.617181   0.745770   -21.00000    -1.20000
AFIX 0
C3B   1   0.460400   0.609400   0.707100   -21.00000     0.12119
PART 0
HKLF 4
END
