TITL CrystalPilot cross-check in P 6/m m m
    job.res
    created by SHELXL-2019/3 at 19:44:24 on 21-Sep-2026
CELL 0.68883 39.19000 39.19000 16.61000 90.0000 90.0000 120.0000
ZERR 24 0.00000 0.00000 0.00000 0.0000 0.0000 0.0000
LATT 1
SYMM X-Y,X,Z
SYMM Y,-X+Y,Z
SYMM -Y,X-Y,Z
SYMM -X+Y,-X,Z
SYMM X-Y,-Y,-Z
SYMM -X,-X+Y,-Z
SYMM -X,-Y,Z
SYMM Y,X,-Z
SYMM -Y,-X,-Z
SYMM -X+Y,Y,-Z
SYMM X,X-Y,-Z
SFAC C O Zr
REM DISP lambda 0.68883 A is not a SHELXL built-in line (Cu/Mo/Ag K-alpha):
REM DISP f'/f'' from cctbx (sasaki: C O Zr), mu = NIST attenuation in
REM DISP barn/atom
DISP $C 0.002 0.002 10.99
DISP $O 0.007 0.006 30.28
DISP $Zr -9.041 2.772 14341.91
UNIT 264.0 96.0 18.0

L.S. 12
BOND $H
CONF
ACTA
FMAP 2
PLAN 20

SHEL 999 1.000

WGHT    0.100000
FVAR       0.04963
ZR1   3    0.463866    0.536134    0.500000    10.25000    0.08293    0.08293 =
         0.06136    0.00000    0.00000    0.05299
ZR2   3    0.544823    0.544823    0.393930    10.50000    0.08788    0.08788 =
         0.08164    0.01211    0.01211    0.05587
O1    2    0.481696    0.587074    0.581606    11.00000    0.10485    0.09644 =
         0.09147   -0.00030    0.00139    0.06859
O2    2    0.534010    0.593393    0.650907    11.00000    0.11343    0.11459 =
         0.12093   -0.03775   -0.02523    0.07232
O3    2    0.526495    0.562791    0.500000    10.50000    0.11584    0.21161 =
         0.08479    0.00000    0.00000    0.11107
O4    2    0.537311    0.537311    0.259594    10.50000    0.18844    0.18844 =
         0.07634    0.02334    0.02334    0.14672
O5    2    0.601017    0.601017    0.412307    10.50000    0.09204    0.09204 =
         0.28471    0.00475    0.00475    0.04513
O6    2    0.518025    0.481975    0.393157    10.50000    0.10333    0.10333 =
         0.17992    0.02679   -0.02679    0.05738
C1    1    0.508612    0.602770    0.633996    11.00000    0.11629    0.11546 =
         0.09265    0.00352   -0.00370    0.08444
C2    1    0.505910    0.690789    0.781699    11.00000    0.23290    0.12518 =
         0.07341    0.00750   -0.01231    0.11406
C3    1    0.477100    0.640598    0.673488    11.00000    0.19309    0.11247 =
         0.09280   -0.03589   -0.01369    0.10637
C4    1    0.509235    0.633305    0.686755    11.00000    0.15666    0.09203 =
         0.11745    0.00341    0.01257    0.09340
C5    1    0.475349    0.669923    0.722184    11.00000    0.19664    0.13302 =
         0.10070   -0.01014   -0.01354    0.10301
C6    1    0.505744    0.723159    0.830699    11.00000    0.22985    0.10273 =
         0.09238   -0.03865   -0.01276    0.10960
C7    1    0.504042    0.752021    0.788197    10.50000    0.24849    0.08138 =
         0.14179   -0.01722   -0.03445    0.12424
C8    1    0.541097    0.652111    0.740879    11.00000    0.19087    0.11527 =
         0.11414   -0.06397   -0.08070    0.07557
C9    1    0.504216    0.721669    0.914605    11.00000    0.23582    0.11108 =
         0.07090   -0.02082   -0.01498    0.10684
C10   1    0.503290    0.751645    0.956543    10.50000    0.24931    0.11067 =
         0.07710   -0.00620   -0.01240    0.12465
C11   1    0.539890    0.682387    0.791229    11.00000    0.25928    0.13755 =
         0.11409    0.00370   -0.02532    0.13274
C12   1    0.503458    0.687288    0.959688    11.00000    0.24734    0.14784 =
         0.08632    0.01689    0.00920    0.13580
HKLF 4




REM  CrystalPilot cross-check in P 6/m m m
REM wR2 = 0.4799, GooF = S = 2.370, Restrained GooF = 2.370 for all data
REM R1 = 0.1820 for 2063 Fo > 4sig(Fo) and 0.2662 for all 4395 data
REM 155 parameters refined using 0 restraints

END  
     
WGHT      0.2000      0.0000 

REM Highest difference peak  1.518,  deepest hole -1.104,  1-sigma level  0.162
Q1    1   0.4287  0.5714  0.8600  10.50000  0.05    1.52
Q2    1   0.4050  0.5950  0.8991  10.50000  0.05    1.27
Q3    1   0.5902  0.6641  1.0000  10.50000  0.05    0.97
Q4    1   0.3944  0.6056  0.5000  10.25000  0.05    0.92
Q5    1   0.5377  0.7400  0.5000  10.50000  0.05    0.90
Q6    1   0.4683  0.5317  0.2107  10.50000  0.05    0.79
Q7    1   0.5854  0.6718  0.5000  10.50000  0.05    0.71
Q8    1   0.5563  0.7019  0.5000  10.50000  0.05    0.67
Q9    1   1.0000  1.0000  0.3974  10.08333  0.05    0.64
Q10   1   0.5000  0.5000  0.1524  10.25000  0.05    0.58
Q11   1   0.5862  0.6461  0.9327  11.00000  0.05    0.58
Q12   1   0.4503  0.7252  0.5385  10.50000  0.05    0.56
Q13   1   0.4421  0.7211  0.5000  10.25000  0.05    0.54
Q14   1   0.6553  0.6553  0.2593  10.50000  0.05    0.54
Q15   1   0.6144  0.6144  0.1920  10.50000  0.05    0.54
Q16   1   0.5000  0.5000  0.2343  10.25000  0.05    0.52
Q17   1   0.6148  0.6148  0.5000  10.25000  0.05    0.50
Q18   1   0.3949  0.6975  0.8516  10.50000  0.05    0.48
Q19   1   0.5363  0.5765  0.1513  11.00000  0.05    0.48
Q20   1   0.3799  0.6201  0.8874  10.50000  0.05    0.46
