TITL NU-1000 framework-only average structure in P6/mmm
    verify_nomask.res
    created by SHELXL-2019/3 at 22:13:31 on 21-Sep-2026
CELL  0.68883  39.1900  39.1900  16.6100   90.000   90.000  120.000
ZERR 3 0 0 0 0 0 0
LATT  1
SYMM -Y, X-Y, Z
SYMM -X+Y, -X, Z
SYMM -X, -Y, Z
SYMM Y, -X+Y, Z
SYMM X-Y, X, Z
SYMM Y, X, -Z
SYMM X-Y, -Y, -Z
SYMM -X, -X+Y, -Z
SYMM -Y, -X, -Z
SYMM -X+Y, Y, -Z
SYMM X, X-Y, -Z
SFAC C O ZR H
DISP C 0.0018766 0.0015000 5.8232
DISP O 0.0070649 0.0056766 22.0375
DISP ZR -9.0413504 2.7716699 10760.0761
DISP H 0 0 0
UNIT 264 96 18 132
SHEL 999 1.0
BOND $H
LIST 6
FMAP 2
PLAN 60
L.S. 0
EQIV $1 -x+y,y,z
EQIV $2 x,y,1-z
DFIX 1.39 0.02 C1 C3 C3 C2 C2 C4 C4 C6 C6 C8 C8 C1
DANG 2.407 0.04 C1 C2 C3 C4 C2 C6 C4 C8 C6 C1 C8 C3
DFIX 1.48 0.03 C1 C7
DFIX 1.49 0.03 C4 C12
DFIX 1.26 0.02 C12 O1 C12 O2
DANG 2.22 0.04 O1 O2
DFIX 1.40 0.03 C5 C7 C7 C10 C9 C10 C10 C11 C9 C9_$2 C11 C11_$2
DANG 2.42 0.05 C5 C10 C7 C9 C7 C11 C9 C11 C7 C7_$1
FLAT 0.03 C1 C3 C2 C4 C6 C8 C12
FLAT 0.03 C5 C7 C9 C10 C11 C7_$1 C10_$1 C11_$1
RIGU 0.004 C1 > C12 O1 O2
SIMU 0.02 0.04 2.0 C1 > C12 O1 O2
REM Framework coordinates only; pore contribution is in the FAB file.
REM Temperature and cell standard uncertainties were not supplied.
REM Node O protonation and terminal O ligand identities are unresolved.
REM Formula records coordinate-model atoms, not a complete sample formula.
WGHT    0.143400
FVAR       0.05376
ZR1   3    0.463818    0.536182    1.000000    10.25000    0.09212    0.09212 =
         0.07274    0.00000    0.00000    0.05920
ZR2   3    0.454961    0.454961    0.893658    10.50000    0.09644    0.09644 =
         0.08757   -0.01218   -0.01218    0.06066
O1    2    0.413076    0.518167    0.917415    11.00000    0.10064    0.11119 =
         0.09808   -0.00563   -0.00419    0.06990
O2    2    0.406705    0.465622    0.850332    11.00000    0.12280    0.11772 =
         0.12791   -0.03094   -0.03327    0.07666
O3    2    0.435765    0.472211    1.000000    10.50000    0.19915    0.11287 =
         0.10276    0.00000    0.00000    0.09678
O4    2    0.463726    0.463726    0.760049    10.50000    0.21457    0.21457 =
         0.08604   -0.04183   -0.04183    0.17164
O5    2    0.399723    0.399723    0.911297    10.50000    0.10720    0.10720 =
         0.26751   -0.02392   -0.02392    0.05632
O6    2    0.518254    0.481746    0.892499    10.50000    0.12907    0.12907 =
         0.14602    0.01540   -0.01540    0.07923
C1    1    0.310236    0.495015    0.720540    11.00000    0.11354    0.22214 =
         0.09100   -0.01263   -0.01106    0.10776
C2    1    0.358499    0.522453    0.824572    11.00000    0.13223    0.16641 =
         0.11274   -0.02189   -0.04259    0.10344
AFIX  43  0.9300
H2    4    0.371650    0.541825    0.863316    11.00000   -1.20000
AFIX   0
C3    1    0.330399    0.523372    0.777343    11.00000    0.13324    0.19338 =
         0.11220   -0.01109   -0.02860    0.10916
AFIX  43  0.9300
H3    4    0.324880    0.543686    0.783965    11.00000   -1.20000
AFIX   0
C4    1    0.367270    0.492954    0.814765    11.00000    0.11705    0.16946 =
         0.10592   -0.02856   -0.02884    0.09759
C5    1    0.247349    0.494698    0.709682    10.50000    0.12486    0.24551 =
         0.10024   -0.01923   -0.00962    0.12275
AFIX  43  0.9300
H5    4    0.247326    0.494652    0.765671    10.50000   -1.20000
AFIX   0
C6    1    0.347310    0.461757    0.760070    11.00000    0.11220    0.21090 =
         0.11234   -0.04367   -0.04392    0.09888
AFIX  43  0.9300
H6    4    0.352489    0.441091    0.756591    11.00000   -1.20000
AFIX   0
C7    1    0.278333    0.494731    0.669284    11.00000    0.10863    0.23486 =
         0.09181   -0.01515   -0.01481    0.11133
C8    1    0.319425    0.463572    0.711551    11.00000    0.12498    0.24173 =
         0.11350   -0.04510   -0.03033    0.11580
AFIX  43  0.9300
H8    4    0.306371    0.444312    0.672554    11.00000   -1.20000
AFIX   0
C9    1    0.247427    0.494854    0.542984    10.50000    0.12061    0.27570 =
         0.08263   -0.00608   -0.00304    0.13785
C10   1    0.278167    0.494798    0.585736    11.00000    0.11911    0.26529 =
         0.08817   -0.00311   -0.00462    0.12624
C11   1    0.309874    0.494902    0.540374    11.00000    0.13940    0.29401 =
         0.08936    0.00355    0.00239    0.13740
AFIX  43  0.9300
H11   4    0.330589    0.494970    0.567828    11.00000   -1.20000
AFIX   0
C12   1    0.397236    0.490920    0.865354    11.00000    0.11227    0.12337 =
         0.09388   -0.02029   -0.01595    0.07685
HKLF 4




REM  NU-1000 framework-only average structure in P6/mmm
REM wR2 = 0.4941, GooF = S = 1.979, Restrained GooF = 1.954 for all data
REM R1 = 0.1817 for 2063 Fo > 4sig(Fo) and 0.2637 for all 4395 data
REM 155 parameters refined using 220 restraints

END  
     
WGHT      0.2000      0.0000 

REM Highest difference peak  1.416,  deepest hole -1.108,  1-sigma level  0.161
Q1    1   0.4287  0.5712  0.6368  10.50000  0.05    1.42
Q2    1   0.4049  0.5951  0.5979  10.50000  0.05    1.18
Q3    1   0.3360  0.4100  0.5000  10.50000  0.05    0.93
Q4    1   0.3945  0.6055  1.0000  10.25000  0.05    0.89
Q5    1   0.2597  0.4622  1.0000  10.50000  0.05    0.89
Q6    1   0.4676  0.5324  0.7102  10.50000  0.05    0.77
Q7    1   0.4156  0.3282  1.0000  10.50000  0.05    0.72
Q8    1   0.0000  0.0000  0.8972  10.08333  0.05    0.71
Q9    1   0.2982  0.4435  1.0000  10.50000  0.05    0.63
Q10   1   0.5000  0.5000  0.6503  10.25000  0.05    0.60
Q11   1   0.2745  0.5490  0.9497  10.50000  0.05    0.58
Q12   1   0.3855  0.3855  0.6894  10.50000  0.05    0.57
Q13   1   0.3865  0.3865  1.0000  10.25000  0.05    0.57
Q14   1   0.3564  0.4138  0.5659  11.00000  0.05    0.54
Q15   1   0.2802  0.5605  1.0000  10.25000  0.05    0.54
Q16   1   0.3477  0.3477  0.7554  10.50000  0.05    0.54
Q17   1   0.3712  0.3712  0.7054  10.50000  0.05    0.50
Q18   1   0.3018  0.6036  0.6470  10.50000  0.05    0.49
Q19   1   0.0000  0.0000  0.6765  10.08333  0.05    0.48
Q20   1   0.3157  0.3858  0.8953  11.00000  0.05    0.47
Q21   1   0.4088  0.4615  0.5000  10.50000  0.05    0.46
Q22   1   0.4033  0.4033  0.6356  10.50000  0.05    0.45
Q23   1   0.0000  0.0000  1.0000  10.04167  0.05    0.45
Q24   1   0.3792  0.6208  0.6103  10.50000  0.05    0.44
Q25   1   0.4633  0.4233  0.6457  11.00000  0.05    0.44
Q26   1   0.0761  0.0761  0.8921  10.50000  0.05    0.42
Q27   1   0.0461  0.0921  1.0000  10.25000  0.05    0.41
Q28   1   0.3242  0.6485  0.6642  10.50000  0.05    0.40
Q29   1   0.3333  0.6667  0.7354  10.16667  0.05    0.39
Q30   1   0.0720  0.0720  1.0000  10.25000  0.05    0.38
Q31   1   0.2142  0.3951  0.8093  11.00000  0.05    0.38
Q32   1   0.3106  0.6211  0.7179  10.50000  0.05    0.37
Q33   1   0.3541  0.6459  0.7366  10.50000  0.05    0.37
Q34   1   0.0600  0.0300  1.0000  10.25000  0.05    0.36
Q35   1   0.1938  0.3876  0.7651  10.50000  0.05    0.36
Q36   1   0.1956  0.4448  0.9243  11.00000  0.05    0.35
Q37   1   0.1484  0.0742  1.0000  10.25000  0.05    0.34
Q38   1   0.2930  0.2930  0.7484  10.50000  0.05    0.33
Q39   1   0.3619  0.6381  0.6208  10.50000  0.05    0.31
Q40   1   0.3221  0.3574  0.6761  11.00000  0.05    0.31
Q41   1   0.0297  0.0593  0.9214  10.50000  0.05    0.31
Q42   1   0.4486  0.4486  0.5423  10.50000  0.05    0.31
Q43   1   0.2332  0.3949  0.5000  10.50000  0.05    0.31
Q44   1   0.4121  0.4121  0.5491  10.50000  0.05    0.31
Q45   1   0.4518  0.4518  0.6188  10.50000  0.05    0.30
Q46   1   0.4562  0.4562  0.6674  10.50000  0.05    0.30
Q47   1   0.4965  0.4275  0.6148  11.00000  0.05    0.29
Q48   1   0.4492  0.5508  0.9535  10.50000  0.05    0.28
Q49   1   0.1981  0.3962  0.5844  10.50000  0.05    0.27
Q50   1   0.2149  0.3933  1.0000  10.50000  0.05    0.26
Q51   1   0.4146  0.5101  0.5904  11.00000  0.05    0.26
Q52   1   0.2745  0.3923  0.8965  11.00000  0.05    0.26
Q53   1   0.3129  0.6051  0.5000  10.50000  0.05    0.26
Q54   1   0.3466  0.3466  1.0000  10.25000  0.05    0.25
Q55   1   0.4288  0.4288  0.8486  10.50000  0.05    0.25
Q56   1   0.2991  0.2991  0.8238  10.50000  0.05    0.25
Q57   1   0.1291  0.1457  1.0000  10.50000  0.05    0.25
Q58   1   0.4357  0.4229  0.8494  11.00000  0.05    0.24
Q59   1   0.1954  0.3907  0.6638  10.50000  0.05    0.24
Q60   1   0.2839  0.2838  0.6614  10.50000  0.05    0.23
