TITL CrystalPilot n0017 in P 21 21 21
REM CrystalPilot node n0017 tool=run_shelxl
REM R1 = 0.0442 wR2 = 0.2001 GooF = 1.222
CELL 0.71073 5.78803 5.96863 12.29941 90.0000 90.0000 90.0000
ZERR 4 0.00000 0.00000 0.00000 0.0000 0.0000 0.0000
LATT -1
SYMM X+1/2,-Y+1/2,-Z
SYMM -X,Y+1/2,-Z+1/2
SYMM -X+1/2,-Y,Z+1/2
SFAC C H N O
UNIT 12.0 28.0 4.0 8.0

WGHT 0.135300 0.075300
FVAR 1.35642
O1    4   0.261072   1.054902   0.684193    11.00000     0.00750     0.02644 =
      0.01917    -0.00367    -0.00102    -0.00049
O2    4   0.125673   0.772845   0.583520    11.00000     0.01200     0.02521 =
      0.01665    -0.00444     0.00141     0.00134
N1    3  -0.316130   0.852447   0.637797    11.00000     0.00770     0.01508 =
      0.01409    -0.00124     0.00014     0.00029
AFIX 137
H1A   2  -0.461168   0.908210   0.646921    11.00000    -1.50000
H1B   2  -0.294039   0.735391   0.684050    11.00000    -1.50000
H1C   2  -0.298679   0.804661   0.568020    11.00000    -1.50000
AFIX 0
C2    1  -0.145021   1.029370   0.661156    11.00000     0.00689     0.01764 =
      0.01135    -0.00040    -0.00035     0.00083
AFIX 13
H2    2  -0.159134   1.073008   0.739373    11.00000    -1.20000
AFIX 0
C1    1   0.100519   0.943513   0.641000    11.00000     0.00960     0.01334 =
      0.00888     0.00180    -0.00001     0.00065
C3    1  -0.196781   1.235162   0.590766    11.00000     0.01197     0.01582 =
      0.02420     0.00299    -0.00005     0.00125
AFIX 137
H3A   2  -0.082117   1.352057   0.605567    11.00000    -1.50000
H3B   2  -0.351479   1.291766   0.607922    11.00000    -1.50000
H3C   2  -0.189851   1.193279   0.513793    11.00000    -1.50000
AFIX 0
HKLF 4
END
