TITL CrystalPilot n0045 in P 6/m m m
REM CrystalPilot node n0045 tool=run_shelxl
REM R1 = 0.0829 wR2 = 0.2365 GooF = 1.086
CELL 0.68883 39.19000 39.19000 16.61000 90.0000 90.0000 120.0000
ZERR 24 0.00000 0.00000 0.00000 0.0000 0.0000 0.0000
LATT 1
SYMM X-Y,X,Z
SYMM Y,-X+Y,Z
SYMM -Y,X-Y,Z
SYMM -X+Y,-X,Z
SYMM X-Y,-Y,-Z
SYMM -X,-X+Y,-Z
SYMM -X,-Y,Z
SYMM Y,X,-Z
SYMM -Y,-X,-Z
SYMM -X+Y,Y,-Z
SYMM X,X-Y,-Z
SFAC C H O Zr
REM DISP lambda 0.68883 A is not a SHELXL built-in line (Cu/Mo/Ag K-alpha):
REM DISP f'/f'' from cctbx (sasaki: C O Zr; henke: H), mu = NIST attenuation
REM DISP in barn/atom
DISP $C 0.002 0.002 10.99
DISP $H 0.000 0.000 0.62
DISP $O 0.007 0.006 30.28
DISP $Zr -9.041 2.772 14341.91
UNIT 264.0 132.0 96.0 18.0

SHEL 999 1.000

WGHT 0.100000 0.000000
FVAR 0.05218
ZR1   4   0.463816   0.536184   0.500000    10.25000     0.08998     0.08998 =
      0.07061     0.00000     0.00000     0.05733
ZR2   4   0.545074   0.545074   0.393634    10.50000     0.09348     0.09348 =
      0.08304     0.01249     0.01249     0.05829
O1    3   0.482331   0.587258   0.582056    11.00000     0.10369     0.09628 =
      0.10046     0.00246     0.00078     0.06804
O2    3   0.534308   0.593142   0.649762    11.00000     0.10484     0.12152 =
      0.12713    -0.04274    -0.03714     0.06906
O3    3   0.527613   0.564186   0.500000    10.50000     0.10168     0.18375 =
      0.10117     0.00000     0.00000     0.08674
O4    3   0.535782   0.535782   0.259749    10.50000     0.19963     0.19963 =
      0.07917     0.03730     0.03730     0.15698
O5    3   0.600308   0.600308   0.410818    10.50000     0.11359     0.11359 =
      0.25353     0.03152     0.03152     0.05934
O6    3   0.518189   0.481811   0.392434    10.50000     0.13537     0.13537 =
      0.12973     0.01315    -0.01315     0.09013
C1    1   0.509513   0.602952   0.634383    11.00000     0.10187     0.11632 =
      0.08448    -0.00750    -0.02509     0.06265
C2    1   0.504569   0.689602   0.780056    11.00000     0.21888     0.12221 =
      0.06891     0.00319    -0.01501     0.10143
C3    1   0.477466   0.640769   0.676078    11.00000     0.15831     0.12043 =
      0.12562    -0.05378    -0.02409     0.09696
AFIX 43
H3    2   0.457883   0.627197   0.637944    11.00000    -1.20000
AFIX 0
C4    1   0.507743   0.632872   0.686139    11.00000     0.17804     0.10899 =
      0.09689    -0.03112    -0.01990     0.09993
C5    1   0.476853   0.669329   0.723961    11.00000     0.18680     0.14627 =
      0.10659    -0.00774    -0.00074     0.11109
AFIX 43
H5    2   0.456490   0.674764   0.717173    11.00000    -1.20000
AFIX 0
C6    1   0.505052   0.721955   0.830513    11.00000     0.23078     0.10073 =
      0.08627    -0.02338    -0.01519     0.10665
C7    1   0.504662   0.752331   0.792516    10.50000     0.25716     0.12219 =
      0.09838    -0.02114    -0.04227     0.12858
AFIX 43
H7    2   0.504087   0.752043   0.736538    10.50000    -1.20000
AFIX 0
C8    1   0.538065   0.652672   0.739999    11.00000     0.23828     0.10795 =
      0.11400    -0.06533    -0.05816     0.10882
AFIX 43
H8    2   0.558488   0.647130   0.743415    11.00000    -1.20000
AFIX 0
C9    1   0.504621   0.722221   0.912808    11.00000     0.25627     0.10852 =
      0.09196     0.00941     0.00105     0.11622
C10   1   0.504922   0.752461   0.955680    10.50000     0.29440     0.10935 =
      0.08910    -0.00034    -0.00067     0.14720
C11   1   0.537607   0.680530   0.788193    11.00000     0.25120     0.12143 =
      0.10800    -0.01286    -0.06490     0.10679
AFIX 43
H11   2   0.557493   0.693882   0.825864    11.00000    -1.20000
AFIX 0
C12   1   0.504415   0.690460   0.959579    11.00000     0.31667     0.15093 =
      0.08886    -0.01383    -0.00288     0.15090
AFIX 43
H12   2   0.504281   0.669632   0.932458    11.00000    -1.20000
AFIX 0
HKLF 4
END
