TITL CrystalPilot cross-check in P 6/m m m
    job.res
    created by SHELXL-2019/3 at 19:40:59 on 21-Sep-2026
CELL 0.68883 39.19000 39.19000 16.61000 90.0000 90.0000 120.0000
ZERR 24 0.00000 0.00000 0.00000 0.0000 0.0000 0.0000
LATT 1
SYMM X-Y,X,Z
SYMM Y,-X+Y,Z
SYMM -Y,X-Y,Z
SYMM -X+Y,-X,Z
SYMM X-Y,-Y,-Z
SYMM -X,-X+Y,-Z
SYMM -X,-Y,Z
SYMM Y,X,-Z
SYMM -Y,-X,-Z
SYMM -X+Y,Y,-Z
SYMM X,X-Y,-Z
SFAC C O Zr
REM DISP lambda 0.68883 A is not a SHELXL built-in line (Cu/Mo/Ag K-alpha):
REM DISP f'/f'' from cctbx (sasaki: C O Zr), mu = NIST attenuation in
REM DISP barn/atom
DISP $C 0.002 0.002 10.99
DISP $O 0.007 0.006 30.28
DISP $Zr -9.041 2.772 14341.91
UNIT 558.0 124.0 18.0

L.S. 6
BOND $H
CONF
ACTA
FMAP 2
PLAN 20

SHEL 999 1.000

WGHT    0.100000
FVAR       0.05255
ZR01  3    0.463837    0.536163    0.500000    10.25000    0.08812    0.08812 =
         0.06979    0.00000    0.00000    0.05555
ZR02  3    0.544762    0.544762    0.393752    10.50000    0.09468    0.09468 =
         0.08591    0.01389    0.01389    0.05996
O003  2    0.481271    0.586374    0.581833    11.00000    0.10897    0.11209 =
         0.09319   -0.00225   -0.00611    0.07542
O004  2    0.533895    0.593006    0.649919    11.00000    0.11658    0.11915 =
         0.12750   -0.04057   -0.02827    0.07003
O005  2    0.527132    0.563045    0.500000    10.50000    0.12653    0.23327 =
         0.10542    0.00000    0.00000    0.12080
O006  2    0.538333    0.538333    0.261996    10.50000    0.20579    0.20579 =
         0.08851    0.01832    0.01832    0.15844
O007  2    0.600995    0.600995    0.412505    10.50000    0.09976    0.09976 =
         0.27872    0.00740    0.00740    0.04946
O008  2    0.517441    0.482559    0.392845    10.50000    0.11729    0.11729 =
         0.15584    0.02773   -0.02773    0.06012
C009  1    0.507784    0.601743    0.634188    11.00000    0.10556    0.11808 =
         0.10324    0.00400   -0.01003    0.07487
C00A  1    0.504915    0.689915    0.779649    11.00000    0.24967    0.12041 =
         0.09005    0.00817   -0.00073    0.13208
O00B  1    0.476850    0.641008    0.672626    11.00000    0.17305    0.12493 =
         0.11443   -0.02155   -0.00505    0.11174
C00C  1    0.506445    0.632245    0.685823    11.00000    0.15210    0.09821 =
         0.10615   -0.02708   -0.02095    0.08156
O00D  1    0.475080    0.669196    0.721772    11.00000    0.21588    0.13144 =
         0.10435   -0.02268   -0.03424    0.10909
C00E  1    0.505325    0.722000    0.831643    11.00000    0.24678    0.11171 =
         0.10272   -0.02639   -0.01447    0.12627
O00F  1    0.505091    0.752545    0.787664    10.50000    0.23428    0.09615 =
         0.14132   -0.01799   -0.03597    0.11714
O00G  1    0.537808    0.652071    0.741090    11.00000    0.18544    0.11135 =
         0.10257   -0.03797   -0.02449    0.08358
C00H  1    0.505113    0.721357    0.914646    11.00000    0.24292    0.12355 =
         0.06511   -0.01753   -0.00563    0.10896
C00I  1    0.504375    0.752188    0.957787    10.50000    0.26086    0.11927 =
         0.07542   -0.00859   -0.01718    0.13043
O00J  1    0.537860    0.681962    0.790903    11.00000    0.25342    0.13197 =
         0.11377   -0.00300   -0.01476    0.13085
O00K  2    0.570428    0.429572    0.134742    10.50000    0.29299
O00L  1    0.504745    0.687438    0.959086    11.00000    0.27688    0.14590 =
         0.08800    0.02228    0.01388    0.13487
C00M  1    0.738997    0.533930    0.500000    10.50000    0.25934
C00N  1    0.594170    0.405830    0.095452    10.50000    0.20263
C00O  1    0.627930    0.627930    0.474296    10.50000    1.27195
C00P  1    0.755465    0.377733    0.500000    10.25000    0.53266
C00Q  1    0.795432    0.397716    0.500000    10.25000    0.40278
C00R  1    0.594267    0.671507    0.000000    10.50000    0.34150
C00S  1    0.705325    0.561417    0.500000    10.50000    0.40115
C00T  1    0.540201    0.459799    0.210015    10.50000    0.42293
C00U  1    0.666742    0.589202    0.500000    10.50000    0.43370
C00V  1    0.713916    0.427832    0.500000    10.25000    0.50263
C00W  1    1.000000    1.000000    0.035028    10.08333    0.64733
C00X  1    0.730984    0.602606    0.500000    10.50000    1.43699
C00Y  1    0.585766    0.641045    0.069748    11.00000    0.95066
C00Z  1    0.484450    0.410164    0.104103    11.00000    0.74880
C010  1    0.740909    0.481817    0.500000    10.25000    0.41398
C011  1    0.944929    0.889858    0.500000    10.25000    0.89939
O012  2    0.642660    0.642660    0.244756    10.50000    0.65434
C013  1    0.521799    0.478201    0.163288    10.50000    1.93373
C014  1    0.930670    0.861340    0.596650    10.50000    1.80516
O015  2    0.666667    0.333333    0.166837    10.16667    0.91747
C016  1    1.000000    1.000000    0.608821    10.08333    0.44428
C017  1    0.544192    0.455808   -0.106376    10.50000    1.50224
C018  1    1.000000    1.000000    1.243550    10.08333    2.00000
C019  1    0.743296    0.460073    0.500000    10.50000    1.38022
C01A  1    0.549551    0.450449    0.000000    10.25000    0.92097
C01B  1    0.930978    0.861955    0.732648    10.50000    1.37086
C01C  1    0.793796    0.396898    0.578414    10.50000    1.09888
C01D  1    0.753473    0.568576    0.596086    11.00000    0.70446
C01E  1    0.951064    0.502882    0.500000    10.50000    1.10804
HKLF 4




REM  CrystalPilot cross-check in P 6/m m m
REM wR2 = 0.3273, GooF = S = 1.544, Restrained GooF = 1.544 for all data
REM R1 = 0.1279 for 2063 Fo > 4sig(Fo) and 0.2166 for all 4395 data
REM 238 parameters refined using 0 restraints

END  
     
WGHT      0.2000      0.0000 

REM Highest difference peak  0.548,  deepest hole -0.531,  1-sigma level  0.102
Q1    1   0.6149  0.6149  0.5000  10.25000  0.05    0.55
Q2    1   0.6125  0.6125  0.1873  10.50000  0.05    0.53
Q3    1   0.6208  0.3792  0.1096  10.50000  0.05    0.51
Q4    1   1.0000  1.0000  1.1708  10.08333  0.05    0.45
Q5    1   1.0000  1.0000  0.5000  10.04167  0.05    0.45
Q6    1   0.6667  0.3333  0.2645  10.16667  0.05    0.43
Q7    1   0.5000  0.5000  0.1490  10.25000  0.05    0.42
Q8    1   0.6512  0.3488  0.0000  10.25000  0.05    0.42
Q9    1   0.6979  0.3958  0.1492  10.50000  0.05    0.41
Q10   1   0.6560  0.6560  0.5000  10.25000  0.05    0.41
Q11   1   0.5676  0.5676  0.3558  10.50000  0.05    0.40
Q12   1   0.6864  0.6163  0.6022  11.00000  0.05    0.40
Q13   1   0.6936  0.3064  0.0000  10.25000  0.05    0.38
Q14   1   0.6640  0.5703  0.5000  10.50000  0.05    0.36
Q15   1   0.6251  0.6550  0.5000  10.50000  0.05    0.36
Q16   1   0.6667  0.3333  0.0636  10.16667  0.05    0.36
Q17   1   0.5712  0.5712  0.4303  10.50000  0.05    0.35
Q18   1   0.6486  0.3514  0.2466  10.50000  0.05    0.34
Q19   1   0.9211  0.8422  0.5000  10.25000  0.05    0.33
Q20   1   0.6851  0.5348  0.5000  10.50000  0.05    0.33
