TITL CrystalPilot cross-check in P 6/m m m
    job.res
    created by SHELXL-2019/3 at 19:51:39 on 21-Sep-2026
CELL 0.68883 39.19000 39.19000 16.61000 90.0000 90.0000 120.0000
ZERR 24 0.00000 0.00000 0.00000 0.0000 0.0000 0.0000
LATT 1
SYMM X-Y,X,Z
SYMM Y,-X+Y,Z
SYMM -Y,X-Y,Z
SYMM -X+Y,-X,Z
SYMM X-Y,-Y,-Z
SYMM -X,-X+Y,-Z
SYMM -X,-Y,Z
SYMM Y,X,-Z
SYMM -Y,-X,-Z
SYMM -X+Y,Y,-Z
SYMM X,X-Y,-Z
SFAC C H O Zr
REM DISP lambda 0.68883 A is not a SHELXL built-in line (Cu/Mo/Ag K-alpha):
REM DISP f'/f'' from cctbx (sasaki: C O Zr; henke: H), mu = NIST attenuation
REM DISP in barn/atom
DISP $C 0.002 0.002 10.99
DISP $H 0.000 0.000 0.62
DISP $O 0.007 0.006 30.28
DISP $Zr -9.041 2.772 14341.91
UNIT 264.0 132.0 96.0 18.0

L.S. 12
BOND $H
CONF
ACTA
FMAP 2
PLAN 20
ABIN

SHEL 999 1.000

WGHT    0.100000
FVAR       0.05192
ZR1   4    0.463825    0.536175    0.500000    10.25000    0.08521    0.08521 =
         0.07051    0.00000    0.00000    0.05824
PART -1
ZR2   4    0.551333    0.538802    0.393619    10.50000    0.09068
PART 0
O1    3    0.482939    0.587352    0.582762    11.00000    0.09082    0.09848 =
         0.10294    0.00921    0.00850    0.06911
O2    3    0.533995    0.593006    0.650660    11.00000    0.10566    0.12836 =
         0.12345   -0.04905   -0.03892    0.06691
O3    3    0.528256    0.565480    0.500000    10.50000    0.08197    0.17598 =
         0.10831    0.00000    0.00000    0.07215
O4    3    0.536171    0.536171    0.259948    10.50000    0.17608    0.17608 =
         0.08388    0.02959    0.02959    0.14407
O5    3    0.600257    0.600257    0.410244    10.50000    0.12704    0.12704 =
         0.24965    0.02836    0.02836    0.06710
O6    3    0.518000    0.482000    0.392403    10.50000    0.10544    0.10544 =
         0.14352    0.01235   -0.01235    0.06496
C1    1    0.509136    0.602784    0.635480    11.00000    0.10661    0.14865 =
         0.07430    0.00605   -0.02247    0.06936
C2    1    0.505539    0.690175    0.779742    11.00000    0.22139    0.10697 =
         0.07040   -0.00661   -0.03652    0.08541
C3    1    0.477428    0.640980    0.676355    11.00000    0.14240    0.11655 =
         0.14070   -0.07172   -0.03997    0.08170
AFIX  43
H3    2    0.457864    0.627702    0.638029    11.00000   -1.20000
AFIX   0
C4    1    0.507799    0.632998    0.686628    11.00000    0.16308    0.09626 =
         0.08792   -0.03690   -0.02077    0.08341
C5    1    0.477309    0.669195    0.724830    11.00000    0.16074    0.12929 =
         0.11756    0.00345    0.00512    0.09245
AFIX  43
H5    2    0.456577    0.674188    0.719610    11.00000   -1.20000
AFIX   0
C6    1    0.505370    0.721888    0.831167    11.00000    0.21288    0.10055 =
         0.09365   -0.02682   -0.01701    0.09757
C7    1    0.504559    0.752280    0.792345    10.50000    0.25006    0.11544 =
         0.09538   -0.01768   -0.03537    0.12503
AFIX  43
H7    2    0.503391    0.751696    0.736405    10.50000   -1.20000
AFIX   0
C8    1    0.538135    0.652463    0.739666    11.00000    0.21959    0.09288 =
         0.11414   -0.06919   -0.05359    0.09506
AFIX  43
H8    2    0.558620    0.646985    0.742326    11.00000   -1.20000
AFIX   0
C9    1    0.504913    0.722668    0.913129    11.00000    0.24097    0.08725 =
         0.08744   -0.00213   -0.01283    0.09610
C10   1    0.505036    0.752518    0.956726    10.50000    0.26523    0.10756 =
         0.08299    0.00295    0.00590    0.13262
C11   1    0.537629    0.680391    0.789082    11.00000    0.22965    0.13092 =
         0.10812   -0.00312   -0.05642    0.09964
AFIX  43
H11   2    0.557068    0.693061    0.827924    11.00000   -1.20000
AFIX   0
C12   1    0.505194    0.690513    0.959676    11.00000    0.29918    0.15398 =
         0.09411   -0.00628    0.00851    0.16216
AFIX  43
H12   2    0.505374    0.669907    0.932285    11.00000   -1.20000
AFIX   0
HKLF 4
