TITL CrystalPilot n0043 in P 6/m m m
REM CrystalPilot node n0043 tool=run_shelxl
REM R1 = 0.0845 wR2 = 0.2341 GooF = 1.075
CELL 0.68883 39.19000 39.19000 16.61000 90.0000 90.0000 120.0000
ZERR 24 0.00000 0.00000 0.00000 0.0000 0.0000 0.0000
LATT 1
SYMM X-Y,X,Z
SYMM Y,-X+Y,Z
SYMM -Y,X-Y,Z
SYMM -X+Y,-X,Z
SYMM X-Y,-Y,-Z
SYMM -X,-X+Y,-Z
SYMM -X,-Y,Z
SYMM Y,X,-Z
SYMM -Y,-X,-Z
SYMM -X+Y,Y,-Z
SYMM X,X-Y,-Z
SFAC C H O Zr
REM DISP lambda 0.68883 A is not a SHELXL built-in line (Cu/Mo/Ag K-alpha):
REM DISP f'/f'' from cctbx (sasaki: C O Zr; henke: H), mu = NIST attenuation
REM DISP in barn/atom
DISP $C 0.002 0.002 10.99
DISP $H 0.000 0.000 0.62
DISP $O 0.007 0.006 30.28
DISP $Zr -9.041 2.772 14341.91
UNIT 264.0 132.0 96.0 18.0

SHEL 999 1.000

WGHT 0.100000 0.000000
FVAR 0.05143
ZR1   4   0.463824   0.536176   0.500000    10.25000     0.08800     0.08800 =
      0.06886     0.00000     0.00000     0.05616
ZR2   4   0.545032   0.545032   0.393644    10.50000     0.09168     0.09168 =
      0.08167     0.01240     0.01240     0.05709
O1    3   0.482350   0.587286   0.582407    11.00000     0.10034     0.09533 =
      0.09795     0.00423     0.00124     0.06629
O2    3   0.534245   0.593128   0.649693    11.00000     0.10539     0.12049 =
      0.12568    -0.04075    -0.03404     0.06958
O3    3   0.527555   0.564012   0.500000    10.50000     0.10185     0.18609 =
      0.09851     0.00000     0.00000     0.08943
O4    3   0.536260   0.536260   0.259685    10.50000     0.19496     0.19496 =
      0.07970     0.03825     0.03825     0.15239
O5    3   0.600145   0.600145   0.409943    10.50000     0.11065     0.11065 =
      0.24701     0.02692     0.02692     0.05906
O6    3   0.518191   0.481809   0.392856    10.50000     0.12943     0.12943 =
      0.12912     0.01571    -0.01571     0.08413
C1    1   0.509379   0.602940   0.634916    11.00000     0.10275     0.11197 =
      0.08238    -0.00127    -0.02205     0.06329
C2    1   0.505093   0.690052   0.780233    11.00000     0.21733     0.11457 =
      0.06946     0.00068    -0.02052     0.09205
C3    1   0.477591   0.640775   0.675933    11.00000     0.15558     0.12073 =
      0.12366    -0.05163    -0.02370     0.09637
AFIX 43
H3    2   0.458038   0.627299   0.637690    11.00000    -1.20000
AFIX 0
C4    1   0.507797   0.632693   0.685890    11.00000     0.17009     0.10576 =
      0.09755    -0.03401    -0.02565     0.09349
C5    1   0.476932   0.669555   0.724337    11.00000     0.17999     0.14756 =
      0.11260    -0.00285     0.00303     0.11203
AFIX 43
H5    2   0.456457   0.674860   0.718029    11.00000    -1.20000
AFIX 0
C6    1   0.505219   0.722137   0.830605    11.00000     0.22639     0.09775 =
      0.08996    -0.02241    -0.01565     0.10682
C7    1   0.505124   0.752562   0.792810    10.50000     0.26570     0.11762 =
      0.09382    -0.01699    -0.03398     0.13285
AFIX 43
H7    2   0.504981   0.752490   0.736820    10.50000    -1.20000
AFIX 0
C8    1   0.537887   0.652272   0.739558    11.00000     0.23088     0.10594 =
      0.11663    -0.06443    -0.05632     0.10656
AFIX 43
H8    2   0.558189   0.646563   0.743258    11.00000    -1.20000
AFIX 0
C9    1   0.504645   0.722227   0.913193    11.00000     0.25395     0.10758 =
      0.08613     0.00504    -0.00448     0.11267
C10   1   0.505063   0.752532   0.955916    10.50000     0.28069     0.10819 =
      0.08443     0.00126     0.00252     0.14034
C11   1   0.537552   0.680537   0.787908    11.00000     0.24214     0.12362 =
      0.10881    -0.00456    -0.05408     0.10642
AFIX 43
H11   2   0.557506   0.693803   0.825490    11.00000    -1.20000
AFIX 0
C12   1   0.504494   0.690291   0.959583    11.00000     0.31074     0.15672 =
      0.08532    -0.01008     0.00070     0.15587
AFIX 43
H12   2   0.504396   0.669520   0.932300    11.00000    -1.20000
AFIX 0
HKLF 4
END
