TITL m2 recompute of delivered CIF model, atoms fixed, scale refined
    m2.res
    created by SHELXL-2019/3 at 09:19:45 on 22-Sep-2026
CELL 0.68883 39.1900 39.1900 16.6100 90.000 90.000 120.000
ZERR 24 0.001 0.001 0.001 0.01 0.01 0.01
LATT 1
SYMM X-Y,X,Z
SYMM -Y,X-Y,Z
SYMM -X,-Y,Z
SYMM -X+Y,-X,Z
SYMM Y,-X+Y,Z
SYMM -Y,-X,-Z
SYMM -X,-X+Y,-Z
SYMM -X+Y,Y,-Z
SYMM Y,X,-Z
SYMM X,X-Y,-Z
SYMM X-Y,-Y,-Z
SFAC Zr O C H
DISP Zr -9.04135 2.77167 0.0
DISP O 0.00706 0.00568 0.0
DISP C 0.00188 0.00150 0.0
DISP H 0.00000 0.00000 0.0
UNIT 48 144 288 144
MERG 2
L.S. 4
LIST 4
FMAP 2
PLAN 5
WGHT    0.080000
FVAR       0.04789
ZR1   1   10.455200   10.000000   10.106112    10.50000   10.08427   10.06065 =
        10.07736   10.00000   10.01199   10.03033
ZR2   1   10.536157   10.072316   10.000000    10.25000   10.07965   10.05756 =
        10.05712   10.00000   10.00000   10.02878
O1    2   10.462967   10.000000   10.240675    10.50000   10.19659   10.08554 =
        10.07986   10.00000   10.02400   10.04277
O2    2   10.473508   10.036503   10.000000    10.50000   10.12394   10.10552 =
        10.08453   10.00000   10.00000   10.00725
O3    2   10.518013   10.036025   10.107368    10.50000   10.10653   10.09286 =
        10.18327   10.04576   10.02288   10.04643
O4    2   10.518726   10.105404   10.080894    11.00000   10.10932   10.06933 =
        10.09015   10.00097    9.99902   10.03929
O5    2   10.465977   10.059416   10.151045    11.00000   10.11852   10.08441 =
        10.12073    9.98872   10.02468   10.04107
O6    2   10.398924   10.000000   10.087687    10.50000   10.09446   10.09627 =
        10.28898   10.00000   10.00675   10.04813
C1    3   10.496025   10.248013   10.456769    10.50000   10.26368   10.11431 =
        10.07895   10.00757   10.01514   10.13184
C2    3   10.461879   10.143202   10.290456    11.00000   10.28561   10.11984 =
        10.11653   10.03026   10.05347   10.13130
C3    3   10.493747   10.184495   10.282613    11.00000   10.24360   10.12658 =
        10.07414   10.00640   10.01836   10.12760
C4    3   10.523202   10.193634   10.223212    11.00000   10.20464   10.10542 =
        10.11581    9.98656   10.01858   10.08520
C5    3   10.522385   10.163654   10.174660    11.00000   10.17498   10.08859 =
        10.10322    9.99657   10.03999   10.06590
C6    3   10.494716   10.217068   10.331388    11.00000   10.23685   10.11554 =
        10.07935    9.99776   10.01081   10.12213
C7    3   10.491294   10.124650   10.185473    11.00000   10.14319   10.08710 =
        10.10282   10.00543   10.01580   10.06714
C8    3   10.495406   10.216930   10.414925    11.00000   10.24299   10.12608 =
        10.07652   10.00086   10.01361   10.12915
C9    3   10.495434   10.184613   10.459578    11.00000   10.25999   10.12387 =
        10.08554    9.99885    9.99036   10.12039
C10   3   10.460328   10.112930   10.240328    11.00000   10.18549   10.12258 =
        10.11787   10.01094   10.05394   10.09582
C11   3   10.496132   10.248067   10.290235    10.50000   10.24069   10.10880 =
        10.10276   10.01808   10.03615   10.12035
C12   3   10.492134   10.094285   10.133152    11.00000   10.12825   10.07370 =
        10.08820   10.00254   10.00211   10.04586
H2    4   10.441937   10.136621   10.329792    11.00000   10.19283
H4    4   10.543615   10.220149   10.216109    11.00000   10.16624
H5    4   10.542307   10.169610   10.135613    11.00000   10.14671
H9    4   10.495452   10.163594   10.431129    11.00000   10.17473
H10   4   10.439507   10.086389   10.243958    11.00000   10.16035
H11   4   10.498096   10.249046   10.233181    10.50000   10.16332
HKLF 4




REM  m2 recompute of delivered CIF model, atoms fixed, scale refined
REM wR2 = 0.4942, GooF = S = 1.688, Restrained GooF = 1.688 for all data
REM R1 = 0.1950 for 2096 Fo > 4sig(Fo) and 0.4819 for all 11289 data
REM 1 parameters refined using 0 restraints

END  
     
WGHT      0.2000      0.0000 

REM Highest difference peak  1.510,  deepest hole -1.242,  1-sigma level  0.168
Q1    1   0.5715  0.1429  0.3637  10.50000  0.05    1.51
Q2    1   0.5945  0.1889  0.4023  10.50000  0.05    1.32
Q3    1   0.4109  0.0743  0.5000  10.50000  0.05    0.98
Q4    1   0.6054  0.2109  0.0000  10.25000  0.05    0.94
Q5    1   0.4622  0.2024  0.0000  10.50000  0.05    0.94
