TITL Complete non-H framework plus riding ligand H; unsqueezed baseline
    r04.res
    created by SHELXL-2019/3 at 21:43:41 on 21-Sep-2026
CELL  0.68883  39.1900  39.1900  16.6100   90.000   90.000  120.000
ZERR    1.000   0.0000   0.0000   0.0000    0.000    0.000    0.000
LATT  1
SYMM -Y, X-Y, Z
SYMM -X+Y, -X, Z
SYMM -X, -Y, Z
SYMM Y, -X+Y, Z
SYMM X-Y, X, Z
SYMM Y, X, -Z
SYMM X-Y, -Y, -Z
SYMM -X, -X+Y, -Z
SYMM -Y, -X, -Z
SYMM -X+Y, Y, -Z
SYMM X, X-Y, -Z
SFAC C O ZR H
DISP C 0.0018766 0.0015000 5.8232
DISP O 0.0070649 0.0056766 22.0375
DISP ZR -9.0413504 2.7716699 10760.0761
UNIT 264 96 18 132
SHEL 999 1.2
BOND $H
ACTA
LIST 6
FMAP 2
PLAN 60
L.S. 12
EQIV $1 -x+y,y,z
EQIV $2 x,y,1-z
DFIX 1.39 0.02 C1 C3 C3 C2 C2 C4 C4 C6 C6 C8 C8 C1
DANG 2.407 0.04 C1 C2 C3 C4 C2 C6 C4 C8 C6 C1 C8 C3
DFIX 1.48 0.03 C1 C7
DFIX 1.49 0.03 C4 C12
DFIX 1.26 0.02 C12 O1 C12 O2
DANG 2.22 0.04 O1 O2
DFIX 1.40 0.03 C5 C7 C7 C10 C9 C10 C10 C11 C9 C9_$2 C11 C11_$2
DANG 2.42 0.05 C5 C10 C7 C9 C7 C11 C9 C11 C7 C7_$1
FLAT 0.03 C1 C3 C2 C4 C6 C8 C12
FLAT 0.03 C5 C7 C9 C10 C11 C7_$1 C10_$1 C11_$1
RIGU 0.004 C1 > C12 O1 O2
SIMU 0.02 0.04 2.0 C1 > C12 O1 O2
WGHT    0.100000
FVAR       0.04994
ZR1   3    0.463877    0.536123    1.000000    10.25000    0.08473    0.08473 =
         0.06239    0.00000    0.00000    0.05325
ZR2   3    0.455210    0.455210    0.893889    10.50000    0.08964    0.08964 =
         0.08066   -0.01183   -0.01183    0.05564
O1    2    0.413485    0.518672    0.918968    11.00000    0.09816    0.11788 =
         0.08978    0.00198   -0.00128    0.07257
O2    2    0.406813    0.466217    0.849439    11.00000    0.11699    0.12916 =
         0.10940   -0.01969   -0.02569    0.07878
O3    2    0.437197    0.473692    1.000000    10.50000    0.20977    0.12392 =
         0.09274    0.00000    0.00000    0.12046
O4    2    0.462489    0.462489    0.759364    10.50000    0.19368    0.19368 =
         0.07234   -0.02309   -0.02309    0.15195
O5    2    0.398836    0.398836    0.912490    10.50000    0.09127    0.09127 =
         0.28974   -0.00973   -0.00973    0.04488
O6    2    0.518161    0.481839    0.893041    10.50000    0.10474    0.10474 =
         0.18491    0.02157   -0.02157    0.05866
C1    1    0.309400    0.493262    0.718290    11.00000    0.11978    0.21407 =
         0.09668   -0.02383   -0.02110    0.11119
C2    1    0.358115    0.522171    0.824259    11.00000    0.12181    0.17846 =
         0.10453   -0.02405   -0.02965    0.10588
AFIX  43
H2    4    0.371378    0.541842    0.862388    11.00000   -1.20000
AFIX   0
C3    1    0.329464    0.522836    0.775876    11.00000    0.12586    0.19697 =
         0.11019   -0.02056   -0.02966    0.11186
AFIX  43
H3    4    0.323611    0.542958    0.781762    11.00000   -1.20000
AFIX   0
C4    1    0.366942    0.492085    0.815638    11.00000    0.11378    0.16815 =
         0.10033   -0.02023   -0.01920    0.09609
C5    1    0.247456    0.494912    0.709633    10.50000    0.11568    0.23191 =
         0.09111   -0.01954   -0.00977    0.11595
AFIX  43
H5    4    0.247331    0.494662    0.765621    10.50000   -1.20000
AFIX   0
C6    1    0.347458    0.462111    0.759338    11.00000    0.12072    0.18803 =
         0.10963   -0.03427   -0.02753    0.10035
AFIX  43
H6    4    0.353327    0.441963    0.754327    11.00000   -1.20000
AFIX   0
C7    1    0.278451    0.495096    0.668487    11.00000    0.11204    0.23203 =
         0.08779   -0.01746   -0.01163    0.11250
C8    1    0.318745    0.463051    0.710339    11.00000    0.12510    0.21069 =
         0.10765   -0.03291   -0.02491    0.10927
AFIX  43
H8    4    0.305682    0.443426    0.672023    11.00000   -1.20000
AFIX   0
C9    1    0.247839    0.495678    0.542584    10.50000    0.11239    0.23977 =
         0.08533   -0.01314   -0.00657    0.11989
C10   1    0.278636    0.495472    0.584712    11.00000    0.11186    0.24027 =
         0.08691   -0.01296   -0.00863    0.11678
C11   1    0.310647    0.495687    0.541523    11.00000    0.11760    0.24922 =
         0.09129   -0.00138   -0.00255    0.12213
AFIX  43
H11   4    0.331251    0.495825    0.569584    11.00000   -1.20000
AFIX   0
C12   1    0.397474    0.491948    0.867111    11.00000    0.10805    0.13610 =
         0.09626   -0.00831   -0.01139    0.08183
HKLF 4




REM  Complete non-H framework plus riding ligand H; unsqueezed baseline
REM wR2 = 0.4774, GooF = S = 2.965, Restrained GooF = 2.857 for all data
REM R1 = 0.1824 for 1584 Fo > 4sig(Fo) and 0.2297 for all 2608 data
REM 155 parameters refined using 220 restraints

END  
     
WGHT      0.2000      0.0000 

REM Highest difference peak  1.437,  deepest hole -1.148,  1-sigma level  0.164
Q1    1   0.4302  0.5698  0.6364  10.50000  0.05    1.44
Q2    1   0.4048  0.5952  0.5975  10.50000  0.05    1.17
Q3    1   0.3350  0.4108  0.5000  10.50000  0.05    0.98
Q4    1   0.2591  0.4625  1.0000  10.50000  0.05    0.86
Q5    1   0.3933  0.6067  1.0000  10.25000  0.05    0.84
Q6    1   0.4635  0.5365  0.7141  10.50000  0.05    0.80
Q7    1   0.4145  0.3289  1.0000  10.50000  0.05    0.75
Q8    1   0.2984  0.4462  1.0000  10.50000  0.05    0.68
Q9    1   0.0000  0.0000  0.8867  10.08333  0.05    0.64
Q10   1   0.2761  0.5523  0.9501  10.50000  0.05    0.61
Q11   1   0.3802  0.3802  0.6937  10.50000  0.05    0.55
Q12   1   0.3491  0.3491  0.7528  10.50000  0.05    0.54
Q13   1   0.2892  0.5503  1.0000  10.50000  0.05    0.54
Q14   1   0.5000  0.5000  0.6511  10.25000  0.05    0.51
Q15   1   0.3785  0.6215  0.6133  10.50000  0.05    0.48
Q16   1   0.4082  0.4082  0.6312  10.50000  0.05    0.47
Q17   1   0.3032  0.6064  0.6396  10.50000  0.05    0.45
Q18   1   0.5000  0.5000  0.7152  10.25000  0.05    0.44
Q19   1   0.4241  0.4668  0.6428  11.00000  0.05    0.44
Q20   1   0.3139  0.3855  0.8915  11.00000  0.05    0.42
Q21   1   0.0000  0.0000  0.6769  10.08333  0.05    0.42
Q22   1   0.3396  0.6604  0.6698  10.50000  0.05    0.42
Q23   1   0.3856  0.3856  1.0000  10.25000  0.05    0.42
Q24   1   0.0417  0.0833  1.0000  10.25000  0.05    0.40
Q25   1   0.0584  0.0811  1.0000  10.50000  0.05    0.39
Q26   1   0.4144  0.4650  0.5000  10.50000  0.05    0.39
Q27   1   0.3333  0.6667  0.7546  10.16667  0.05    0.37
Q28   1   0.2717  0.4042  0.9051  11.00000  0.05    0.37
Q29   1   0.2067  0.3895  0.7879  11.00000  0.05    0.36
Q30   1   0.2442  0.4331  0.9096  11.00000  0.05    0.34
Q31   1   0.3582  0.6418  0.7298  10.50000  0.05    0.34
Q32   1   0.0754  0.0754  0.8944  10.50000  0.05    0.34
Q33   1   0.3101  0.6202  0.7297  10.50000  0.05    0.34
Q34   1   0.3375  0.6298  0.7413  11.00000  0.05    0.34
Q35   1   0.4229  0.4229  0.5428  10.50000  0.05    0.32
Q36   1   0.0585  0.0585  0.8949  10.50000  0.05    0.30
Q37   1   0.3215  0.3624  0.6720  11.00000  0.05    0.29
Q38   1   0.3609  0.6391  0.6354  10.50000  0.05    0.29
Q39   1   0.0111  0.0081  1.0000  10.10000  0.05    0.29
Q40   1   0.2956  0.2956  0.7579  10.50000  0.05    0.29
Q41   1   0.4548  0.4548  0.6791  10.50000  0.05    0.27
Q42   1   0.1978  0.3955  0.5942  10.50000  0.05    0.27
Q43   1   0.1750  0.3853  1.0000  10.50000  0.05    0.27
Q44   1   0.4157  0.5053  0.5828  11.00000  0.05    0.26
Q45   1   0.3029  0.6059  0.5279  10.50000  0.05    0.25
Q46   1   0.0712  0.1424  1.0000  10.25000  0.05    0.25
Q47   1   0.3470  0.3470  1.0000  10.25000  0.05    0.22
Q48   1   0.2858  0.4026  0.5000  10.50000  0.05    0.21
Q49   1   0.3710  0.6290  0.8151  10.50000  0.05    0.21
Q50   1   0.1912  0.3437  0.7995  11.00000  0.05    0.21
Q51   1   0.0895  0.0895  0.5517  10.50000  0.05    0.21
Q52   1   0.2781  0.2781  0.6530  10.50000  0.05    0.20
Q53   1   0.1010  0.1489  0.7374  11.00000  0.05    0.20
Q54   1   0.2185  0.2185  0.6228  10.50000  0.05    0.20
Q55   1   0.0336  0.0336  0.8103  10.50000  0.05    0.20
Q56   1   0.2968  0.2968  0.5000  10.25000  0.05    0.20
Q57   1   0.2617  0.2617  0.8316  10.50000  0.05    0.20
Q58   1   0.2432  0.2431  0.6780  10.50000  0.05    0.20
Q59   1   0.3166  0.5142  0.7294  11.00000  0.05    0.19
Q60   1   0.2096  0.3910  0.5577  11.00000  0.05    0.19
