TITL Unmasked zero-cycle map for solvent-mask recomputation
    r08_map.res
    created by SHELXL-2019/3 at 21:55:36 on 21-Sep-2026
CELL  0.68883  39.1900  39.1900  16.6100   90.000   90.000  120.000
ZERR    1.000   0.0000   0.0000   0.0000    0.000    0.000    0.000
LATT  1
SYMM -Y, X-Y, Z
SYMM -X+Y, -X, Z
SYMM -X, -Y, Z
SYMM Y, -X+Y, Z
SYMM X-Y, X, Z
SYMM Y, X, -Z
SYMM X-Y, -Y, -Z
SYMM -X, -X+Y, -Z
SYMM -Y, -X, -Z
SYMM -X+Y, Y, -Z
SYMM X, X-Y, -Z
SFAC C O ZR H
DISP C 0.0018766 0.0015000 5.8232
DISP O 0.0070649 0.0056766 22.0375
DISP ZR -9.0413504 2.7716699 10760.0761
UNIT 264 96 18 132
SHEL 999 1.0
BOND $H
LIST 6
FMAP 2
PLAN 60
L.S. 0
EQIV $1 -x+y,y,z
EQIV $2 x,y,1-z
DFIX 1.39 0.02 C1 C3 C3 C2 C2 C4 C4 C6 C6 C8 C8 C1
DANG 2.407 0.04 C1 C2 C3 C4 C2 C6 C4 C8 C6 C1 C8 C3
DFIX 1.48 0.03 C1 C7
DFIX 1.49 0.03 C4 C12
DFIX 1.26 0.02 C12 O1 C12 O2
DANG 2.22 0.04 O1 O2
DFIX 1.40 0.03 C5 C7 C7 C10 C9 C10 C10 C11 C9 C9_$2 C11 C11_$2
DANG 2.42 0.05 C5 C10 C7 C9 C7 C11 C9 C11 C7 C7_$1
FLAT 0.03 C1 C3 C2 C4 C6 C8 C12
FLAT 0.03 C5 C7 C9 C10 C11 C7_$1 C10_$1 C11_$1
RIGU 0.004 C1 > C12 O1 O2
SIMU 0.02 0.04 2.0 C1 > C12 O1 O2
WGHT    0.157100
FVAR       0.05380
ZR1   3    0.463822    0.536178    1.000000    10.25000    0.09203    0.09203 =
         0.07294    0.00000    0.00000    0.05907
ZR2   3    0.454969    0.454969    0.893666    10.50000    0.09642    0.09642 =
         0.08778   -0.01225   -0.01225    0.06068
O1    2    0.413106    0.518188    0.917429    11.00000    0.10051    0.11068 =
         0.09823   -0.00546   -0.00445    0.06961
O2    2    0.406696    0.465612    0.850420    11.00000    0.12308    0.11796 =
         0.12832   -0.03051   -0.03348    0.07715
O3    2    0.435893    0.472245    1.000000    10.50000    0.20031    0.11347 =
         0.10195    0.00000    0.00000    0.09735
O4    2    0.463706    0.463706    0.760124    10.50000    0.21479    0.21479 =
         0.08628   -0.04188   -0.04188    0.17184
O5    2    0.399694    0.399694    0.911342    10.50000    0.10746    0.10746 =
         0.26841   -0.02377   -0.02377    0.05689
O6    2    0.518225    0.481775    0.892498    10.50000    0.12768    0.12768 =
         0.14696    0.01537   -0.01537    0.07745
C1    1    0.310196    0.494978    0.720526    11.00000    0.11370    0.22344 =
         0.09142   -0.01309   -0.01158    0.10809
C2    1    0.358431    0.522414    0.824598    11.00000    0.13266    0.16508 =
         0.11308   -0.02139   -0.04260    0.10295
AFIX  43
H2    4    0.371579    0.541790    0.863338    11.00000   -1.20000
AFIX   0
C3    1    0.330349    0.523353    0.777371    11.00000    0.13314    0.19281 =
         0.11286   -0.01127   -0.02911    0.10841
AFIX  43
H3    4    0.324828    0.543666    0.783990    11.00000   -1.20000
AFIX   0
C4    1    0.367218    0.492904    0.814859    11.00000    0.11762    0.16898 =
         0.10623   -0.02804   -0.02936    0.09727
C5    1    0.247325    0.494650    0.709705    10.50000    0.12375    0.24485 =
         0.10074   -0.01903   -0.00952    0.12242
AFIX  43
H5    4    0.247297    0.494593    0.765695    10.50000   -1.20000
AFIX   0
C6    1    0.347255    0.461685    0.760104    11.00000    0.11260    0.21070 =
         0.11288   -0.04381   -0.04379    0.09909
AFIX  43
H6    4    0.352435    0.441019    0.756620    11.00000   -1.20000
AFIX   0
C7    1    0.278320    0.494691    0.669325    11.00000    0.10822    0.23526 =
         0.09212   -0.01481   -0.01478    0.11162
C8    1    0.319370    0.463515    0.711564    11.00000    0.12468    0.24282 =
         0.11360   -0.04465   -0.03014    0.11626
AFIX  43
H8    4    0.306309    0.444252    0.672574    11.00000   -1.20000
AFIX   0
C9    1    0.247417    0.494834    0.542915    10.50000    0.12110    0.27553 =
         0.08253   -0.00588   -0.00294    0.13777
C10   1    0.278130    0.494759    0.585684    11.00000    0.11950    0.26517 =
         0.08827   -0.00349   -0.00456    0.12669
C11   1    0.309874    0.494890    0.540430    11.00000    0.13898    0.29290 =
         0.08955    0.00331    0.00199    0.13781
AFIX  43
H11   4    0.330590    0.494976    0.567919    11.00000   -1.20000
AFIX   0
C12   1    0.397225    0.490964    0.865392    11.00000    0.11252    0.12341 =
         0.09376   -0.02049   -0.01662    0.07698
HKLF 4




REM  Unmasked zero-cycle map for solvent-mask recomputation
REM wR2 = 0.4982, GooF = S = 1.876, Restrained GooF = 1.852 for all data
REM R1 = 0.1816 for 2063 Fo > 4sig(Fo) and 0.2636 for all 4395 data
REM 155 parameters refined using 220 restraints

END  
     
WGHT      0.2000      0.0000 

REM Highest difference peak  1.416,  deepest hole -1.108,  1-sigma level  0.161
Q1    1   0.4288  0.5712  0.6369  10.50000  0.05    1.42
Q2    1   0.4049  0.5951  0.5979  10.50000  0.05    1.17
Q3    1   0.3360  0.4100  0.5000  10.50000  0.05    0.93
Q4    1   0.3945  0.6055  1.0000  10.25000  0.05    0.89
Q5    1   0.2597  0.4622  1.0000  10.50000  0.05    0.89
Q6    1   0.4677  0.5323  0.7102  10.50000  0.05    0.77
Q7    1   0.4155  0.3282  1.0000  10.50000  0.05    0.72
Q8    1   0.0000  0.0000  0.8972  10.08333  0.05    0.71
Q9    1   0.2982  0.4436  1.0000  10.50000  0.05    0.63
Q10   1   0.5000  0.5000  0.6503  10.25000  0.05    0.60
Q11   1   0.2745  0.5490  0.9499  10.50000  0.05    0.58
Q12   1   0.3855  0.3855  0.6895  10.50000  0.05    0.57
Q13   1   0.3865  0.3865  1.0000  10.25000  0.05    0.57
Q14   1   0.3564  0.4138  0.5660  11.00000  0.05    0.55
Q15   1   0.2802  0.5605  1.0000  10.25000  0.05    0.54
Q16   1   0.3477  0.3477  0.7553  10.50000  0.05    0.53
Q17   1   0.3712  0.3712  0.7056  10.50000  0.05    0.50
Q18   1   0.3018  0.6036  0.6468  10.50000  0.05    0.49
Q19   1   0.0000  0.0000  0.6765  10.08333  0.05    0.47
Q20   1   0.3157  0.3858  0.8953  11.00000  0.05    0.47
Q21   1   0.4088  0.4616  0.5000  10.50000  0.05    0.46
Q22   1   0.4033  0.4033  0.6356  10.50000  0.05    0.45
Q23   1   0.0000  0.0000  1.0000  10.04167  0.05    0.45
Q24   1   0.3792  0.6208  0.6103  10.50000  0.05    0.44
Q25   1   0.4633  0.4233  0.6457  11.00000  0.05    0.44
Q26   1   0.0762  0.0762  0.8921  10.50000  0.05    0.42
Q27   1   0.0459  0.0919  1.0000  10.25000  0.05    0.41
Q28   1   0.3242  0.6485  0.6641  10.50000  0.05    0.40
Q29   1   0.3333  0.6667  0.7354  10.16667  0.05    0.39
Q30   1   0.0720  0.0720  1.0000  10.25000  0.05    0.38
Q31   1   0.2141  0.3950  0.8094  11.00000  0.05    0.38
Q32   1   0.3106  0.6211  0.7180  10.50000  0.05    0.37
Q33   1   0.3541  0.6459  0.7366  10.50000  0.05    0.37
Q34   1   0.0301  0.0601  1.0000  10.25000  0.05    0.37
Q35   1   0.1938  0.3875  0.7654  10.50000  0.05    0.36
Q36   1   0.2492  0.4447  0.9241  11.00000  0.05    0.35
Q37   1   0.0742  0.1484  1.0000  10.25000  0.05    0.34
Q38   1   0.2930  0.2930  0.7483  10.50000  0.05    0.33
Q39   1   0.3619  0.6381  0.6210  10.50000  0.05    0.31
Q40   1   0.3221  0.3574  0.6761  11.00000  0.05    0.31
Q41   1   0.2319  0.3945  0.5000  10.50000  0.05    0.31
Q42   1   0.0297  0.0593  0.9215  10.50000  0.05    0.31
Q43   1   0.4485  0.4485  0.5422  10.50000  0.05    0.31
Q44   1   0.4122  0.4122  0.5493  10.50000  0.05    0.31
Q45   1   0.4519  0.4519  0.6187  10.50000  0.05    0.30
Q46   1   0.4562  0.4562  0.6669  10.50000  0.05    0.30
Q47   1   0.4492  0.5508  0.9534  10.50000  0.05    0.28
Q48   1   0.1981  0.3962  0.5843  10.50000  0.05    0.27
Q49   1   0.2148  0.3932  1.0000  10.50000  0.05    0.26
Q50   1   0.4146  0.5101  0.5903  11.00000  0.05    0.26
Q51   1   0.2746  0.3924  0.8966  11.00000  0.05    0.26
Q52   1   0.3128  0.6051  0.5000  10.50000  0.05    0.26
Q53   1   0.4289  0.4289  0.8487  10.50000  0.05    0.25
Q54   1   0.3466  0.3466  1.0000  10.25000  0.05    0.25
Q55   1   0.2990  0.2990  0.8235  10.50000  0.05    0.25
Q56   1   0.1290  0.1455  1.0000  10.50000  0.05    0.25
Q57   1   0.4358  0.4229  0.8495  11.00000  0.05    0.24
Q58   1   0.1954  0.3908  0.6639  10.50000  0.05    0.24
Q59   1   0.2837  0.2837  0.6614  10.50000  0.05    0.23
Q60   1   0.0885  0.0885  0.5422  10.50000  0.05    0.22
