TITL CrystalPilot cross-check in P 6/m m m
    job.res
    created by SHELXL-2019/3 at 19:40:04 on 21-Sep-2026
CELL 0.68883 39.19000 39.19000 16.61000 90.0000 90.0000 120.0000
ZERR 24 0.00000 0.00000 0.00000 0.0000 0.0000 0.0000
LATT 1
SYMM X-Y,X,Z
SYMM Y,-X+Y,Z
SYMM -Y,X-Y,Z
SYMM -X+Y,-X,Z
SYMM X-Y,-Y,-Z
SYMM -X,-X+Y,-Z
SYMM -X,-Y,Z
SYMM Y,X,-Z
SYMM -Y,-X,-Z
SYMM -X+Y,Y,-Z
SYMM X,X-Y,-Z
SFAC C O Zr
REM DISP lambda 0.68883 A is not a SHELXL built-in line (Cu/Mo/Ag K-alpha):
REM DISP f'/f'' from cctbx (sasaki: C O Zr), mu = NIST attenuation in
REM DISP barn/atom
DISP $C 0.002 0.002 10.99
DISP $O 0.007 0.006 30.28
DISP $Zr -9.041 2.772 14341.91
UNIT 582.0 124.0 18.0

L.S. 8
BOND $H
CONF
ACTA
FMAP 2
PLAN 20

SHEL 999 1.000

WGHT    0.100000
FVAR       0.05099
ZR01  3    0.463918    0.536082    0.500000    10.25000    0.07111
ZR02  3    0.544758    0.544758    0.393853    10.50000    0.08199
O003  2    0.481132    0.585862    0.580952    11.00000    0.09070
O004  2    0.534170    0.593008    0.648756    11.00000    0.11332
O005  2    0.525950    0.562411    0.500000    10.50000    0.13107
O006  2    0.538251    0.538251    0.261788    10.50000    0.12612
O007  2    0.601428    0.601428    0.408931    10.50000    0.14692
O008  2    0.517384    0.482616    0.393569    10.50000    0.13461
C009  1    0.507365    0.602233    0.631951    11.00000    0.10413
C00A  1    0.506137    0.688318    0.780141    11.00000    0.13059
O00B  1    0.477068    0.641856    0.673353    11.00000    0.11197
C00C  1    0.506863    0.633235    0.686301    11.00000    0.10893
O00D  1    0.475047    0.669444    0.725589    11.00000    0.13157
C00E  1    0.504990    0.720952    0.831576    11.00000    0.14293
O00F  1    0.506782    0.753391    0.786353    10.50000    0.13976
O00G  1    0.539731    0.653517    0.739477    11.00000    0.12139
C00H  1    0.504572    0.720795    0.915082    11.00000    0.14174
C00I  1    0.503628    0.751814    0.957697    10.50000    0.12689
O00J  1    0.538890    0.683212    0.790883    11.00000    0.14216
O00K  2    0.569387    0.430613    0.134829    10.50000    0.28497
O00L  1    0.503187    0.685813    0.957019    11.00000    0.15430
C00M  1    0.743023    0.534123    0.500000    10.50000    0.22605
C00N  1    0.592611    0.407389    0.094843    10.50000    0.21516
C00O  1    0.602142    0.602142    0.476852    10.50000    0.77740
C00P  1    0.748582    0.374291    0.500000    10.25000    0.59447
C00Q  1    0.796547    0.398273    0.500000    10.25000    0.30378
C00R  1    0.592367    0.668524    0.000000    10.50000    0.28083
C00S  1    0.701023    0.557821    0.500000    10.50000    0.40346
C00T  1    0.540340    0.459660    0.202293    10.50000    0.34838
C00U  1    0.668598    0.587414    0.500000    10.50000    0.38358
C00V  1    0.785336    0.570672    0.500000    10.25000    1.17419
C00W  1    1.000000    1.000000   -0.076459    10.08333    0.61067
C00X  1    0.762128    0.597912    0.500000    10.50000    2.00000
C00Y  1    0.579463    0.628779    0.074957    11.00000    0.67953
C00Z  1    0.499745    0.422210    0.108911    11.00000    0.78733
C010  1    0.741015    0.482031    0.500000    10.25000    1.11024
C011  1    0.917329    0.834658    0.500000    10.25000    0.69253
O012  2    0.638413    0.638413    0.239228    10.50000    0.77555
C013  1    0.515377    0.484623    0.189497    10.50000    0.67032
C014  1    0.905361    0.810721    0.679994    10.50000    1.75682
O015  2    0.666667    0.333333    0.123743    10.16667    1.31974
C016  1    1.000000    1.000000    0.763645    10.08333    0.16874
C017  1    0.553889    0.446111   -0.071832    10.50000    1.30501
C018  1    1.000000    1.000000    1.597137    10.08333    2.00000
C019  1    0.760527    0.430038    0.500000    10.50000    0.93073
C01A  1    0.558495    0.441505    0.000000    10.25000    1.06122
C01B  1    0.957504    0.915009    0.834290    10.50000    2.00000
C01C  1    0.763547    0.381774    0.582731    10.50000    0.93439
C01D  1    0.752857    0.561606    0.598975    11.00000    0.77598
C01E  1    0.776090    0.447025    0.504433    11.00000    1.24997
HKLF 4




REM  CrystalPilot cross-check in P 6/m m m
REM wR2 = 0.4266, GooF = S = 2.064, Restrained GooF = 2.064 for all data
REM R1 = 0.1698 for 2063 Fo > 4sig(Fo) and 0.2620 for all 4395 data
REM 156 parameters refined using 0 restraints

END  
     
WGHT      0.2000      0.0000 

REM Highest difference peak  1.075,  deepest hole -1.472,  1-sigma level  0.129
Q1    1   0.5593  0.5593  0.4147  10.50000  0.05    1.07
Q2    1   0.4512  0.5250  0.5000  10.50000  0.05    0.97
Q3    1   0.5335  0.5335  0.3753  10.50000  0.05    0.97
Q4    1   1.0000  1.0000  1.5000  10.04167  0.05    0.65
Q5    1   0.7279  0.4557  0.5475  10.50000  0.05    0.58
Q6    1   0.6207  0.3793  0.1103  10.50000  0.05    0.55
Q7    1   0.5170  0.5170  0.2581  10.50000  0.05    0.53
Q8    1   0.6527  0.3473  0.0000  10.25000  0.05    0.51
Q9    1   0.4489  0.5511  0.4483  10.50000  0.05    0.50
Q10   1   0.6970  0.3939  0.1563  10.50000  0.05    0.50
Q11   1   0.9568  0.9136  0.5000  10.25000  0.05    0.48
Q12   1   0.6925  0.3075  0.2058  10.50000  0.05    0.46
Q13   1   0.5385  0.5811  0.5000  10.50000  0.05    0.46
Q14   1   0.6543  0.6543  0.5000  10.25000  0.05    0.46
Q15   1   0.6081  0.6081  0.1743  10.50000  0.05    0.46
Q16   1   1.0000  0.9172  1.6115  10.50000  0.05    0.43
Q17   1   0.6050  0.8025  0.9056  10.50000  0.05    0.42
Q18   1   0.6887  0.6133  0.5886  11.00000  0.05    0.41
Q19   1   0.6460  0.2919  0.2423  10.50000  0.05    0.40
Q20   1   0.4794  0.6810  0.9672  11.00000  0.05    0.39
