TITL CrystalPilot n0019 in P 6/m m m
REM CrystalPilot node n0019 tool=run_shelxl
REM R1 = 0.1543 wR2 = 0.3895 GooF = 1.882
CELL 0.68883 39.19000 39.19000 16.61000 90.0000 90.0000 120.0000
ZERR 24 0.00000 0.00000 0.00000 0.0000 0.0000 0.0000
LATT 1
SYMM X-Y,X,Z
SYMM Y,-X+Y,Z
SYMM -Y,X-Y,Z
SYMM -X+Y,-X,Z
SYMM X-Y,-Y,-Z
SYMM -X,-X+Y,-Z
SYMM -X,-Y,Z
SYMM Y,X,-Z
SYMM -Y,-X,-Z
SYMM -X+Y,Y,-Z
SYMM X,X-Y,-Z
SFAC C O Zr
REM DISP lambda 0.68883 A is not a SHELXL built-in line (Cu/Mo/Ag K-alpha):
REM DISP f'/f'' from cctbx (sasaki: C O Zr), mu = NIST attenuation in
REM DISP barn/atom
DISP $C 0.002 0.002 10.99
DISP $O 0.007 0.006 30.28
DISP $Zr -9.041 2.772 14341.91
UNIT 546.0 124.0 18.0

SHEL 999 1.000

WGHT 0.100000 0.000000
FVAR 0.05155
ZR01  3   0.463859   0.536141   0.500000    10.25000     0.08536     0.08536 =
      0.06849     0.00000     0.00000     0.05353
ZR02  3   0.544774   0.544774   0.393693    10.50000     0.09423     0.09423 =
      0.08461     0.01342     0.01342     0.06023
O003  2   0.481686   0.586664   0.581638    11.00000     0.10899     0.11232 =
      0.09390     0.00504     0.00431     0.07781
O004  2   0.534277   0.593057   0.649594    11.00000     0.11268     0.11964 =
      0.12529    -0.03926    -0.03120     0.06961
O005  2   0.526964   0.562947   0.500000    10.50000     0.13633     0.21740 =
      0.10883     0.00000     0.00000     0.12277
O006  2   0.538388   0.538388   0.261755    10.50000     0.20257     0.20257 =
      0.08986     0.02498     0.02498     0.15558
O007  2   0.600798   0.600798   0.413818    10.50000     0.09631     0.09631 =
      0.27352     0.00788     0.00788     0.04788
O008  2   0.517426   0.482574   0.392915    10.50000     0.11474     0.11474 =
      0.15451     0.02494    -0.02494     0.06023
C009  1   0.508692   0.602349   0.634887    11.00000     0.10372     0.12065 =
      0.09971     0.00550    -0.01445     0.07173
C00A  1   0.505907   0.690198   0.780422    11.00000     0.24238     0.11057 =
      0.08660     0.00580    -0.00095     0.12186
O00B  1   0.477656   0.641521   0.673562    11.00000     0.17361     0.11624 =
      0.11307    -0.02482    -0.00809     0.10533
C00C  1   0.507502   0.632764   0.687038    11.00000     0.14841     0.09379 =
      0.11554    -0.02962    -0.02160     0.08531
O00D  1   0.475183   0.669200   0.722337    11.00000     0.21387     0.12839 =
      0.10832    -0.02893    -0.03655     0.11403
C00E  1   0.505243   0.721553   0.832474    11.00000     0.22957     0.10074 =
      0.10907    -0.02702    -0.01501     0.11401
O00F  1   0.505018   0.752509   0.787082    10.50000     0.22035     0.09624 =
      0.13905    -0.01474    -0.02948     0.11017
O00G  1   0.538272   0.652036   0.741361    11.00000     0.18187     0.10644 =
      0.10296    -0.04809    -0.03830     0.07984
C00H  1   0.505251   0.720683   0.915131    11.00000     0.24944     0.12810 =
      0.05439    -0.01870     0.00310     0.10805
C00I  1   0.504953   0.752476   0.957406    10.50000     0.25359     0.12709 =
      0.07083    -0.00510    -0.01020     0.12679
O00J  1   0.537685   0.681558   0.791670    11.00000     0.24753     0.13948 =
      0.12525    -0.00067    -0.02320     0.13847
O00K  2   0.570084   0.429916   0.135361    10.50000     0.30240
O00L  1   0.505226   0.687314   0.958751    11.00000     0.28612     0.14357 =
      0.08831     0.02846     0.01701     0.13762
C00M  1   0.738702   0.534261   0.500000    10.50000     0.26875
C00N  1   0.593875   0.406125   0.095271    10.50000     0.20849
C00P  1   0.756886   0.378443   0.500000    10.25000     0.80243
C00Q  1   0.801535   0.400767   0.500000    10.25000     0.36012
C00R  1   0.595669   0.673311   0.000000    10.50000     0.35781
C00S  1   0.704951   0.563184   0.500000    10.50000     0.42200
C00T  1   0.540224   0.459776   0.211872    10.50000     0.37801
C00U  1   0.667497   0.586336   0.500000    10.50000     0.46507
C00V  1   0.718070   0.436139   0.500000    10.25000     0.56457
C00W  1   1.000000   1.000000   0.029901    10.08333     0.56232
C00X  1   0.663506   0.619704   0.500000    10.50000     1.14362
C00Y  1   0.579072   0.642735   0.055042    11.00000     1.04223
C00Z  1   0.487097   0.403196   0.102215    11.00000     0.73130
C010  1   0.745692   0.491384   0.500000    10.25000     0.02512
C011  1   0.951060   0.902121   0.500000    10.25000     1.06031
O012  2   0.642272   0.642272   0.234828    10.50000     0.68787
C013  1   0.553073   0.446927   0.142628    10.50000     1.33631
C014  1   0.943231   0.886462   0.612602    10.50000     2.00000
O015  2   0.666667   0.333333   0.159698    10.16667     1.00317
C016  1   1.000000   1.000000  -0.216921    10.08333     1.69379
C017  1   0.527361   0.472639  -0.159755    10.50000     0.75373
C018  1   1.000000   1.000000   0.517226    10.08333     0.11528
C019  1   0.599832   0.474120   0.500000    10.50000     2.00000
C01A  1   0.547173   0.452827   0.000000    10.25000     1.02200
C01B  1   0.929097   0.858194   0.703331    10.50000     1.18979
C01C  1   0.770822   0.385411   0.500000    10.50000     2.00000
C01D  1   0.750751   0.574801   0.595086    11.00000     0.68154
C01E  1   0.957526   0.505560   0.500000    10.50000     1.42752
HKLF 4
END
