TITL CrystalPilot cross-check in P 21 21 21
    job.res
    created by SHELXL-2019/3 at 20:26:23 on 21-Sep-2026
CELL 0.71073 5.78803 5.96863 12.29941 90.0000 90.0000 90.0000
ZERR 4 0.00000 0.00000 0.00000 0.0000 0.0000 0.0000
LATT -1
SYMM X+1/2,-Y+1/2,-Z
SYMM -X,Y+1/2,-Z+1/2
SYMM -X+1/2,-Y,Z+1/2
SFAC C H N O
UNIT 12.0 28.0 4.0 8.0

L.S. 10
BOND $H
CONF
ACTA
FMAP 2
PLAN 20
TEMP -123.1

SADI 0.020 O1 C1 O1B C1
SIMU 0.040 0.080 O1 O1B

WGHT    0.100000
FVAR       1.34994   1.00923
PART 1
O1    4    0.261240    1.054912    0.684233    21.00000    0.01768
PART 0
O2    4    0.125727    0.773474    0.583394    11.00000    0.01046    0.02668 =
         0.01626   -0.00378    0.00150    0.00165
N1    3   -0.315784    0.853382    0.637620    11.00000    0.00885    0.01376 =
         0.01324   -0.00182    0.00061    0.00071
AFIX 137
H1A   2   -0.460575    0.908721    0.648116    11.00000   -1.50000
H1B   2   -0.292269    0.734829    0.682806    11.00000   -1.50000
H1C   2   -0.300348    0.807924    0.567372    11.00000   -1.50000
AFIX   0
C2    1   -0.144697    1.029048    0.661163    11.00000    0.00780    0.01937 =
         0.01080   -0.00063   -0.00038    0.00109
AFIX  13
H2    2   -0.158759    1.072498    0.739407    11.00000   -1.20000
AFIX   0
C1    1    0.101017    0.943458    0.640787    11.00000    0.00958    0.01231 =
         0.00814    0.00177   -0.00090    0.00085
C3    1   -0.196935    1.234684    0.590850    11.00000    0.01106    0.01378 =
         0.02509    0.00218   -0.00018    0.00085
AFIX 137
H3A   2   -0.085930    1.353780    0.607574    11.00000   -1.50000
H3B   2   -0.353867    1.287673    0.606127    11.00000   -1.50000
H3C   2   -0.184430    1.194179    0.513859    11.00000   -1.50000
AFIX   0
PART 2
O1B   4    0.337693    0.271708    0.685650   -21.00000    0.00025
PART 0
HKLF 4




REM  CrystalPilot cross-check in P 21 21 21
REM wR2 = 0.2224, GooF = S = 1.810, Restrained GooF = 8.579 for all data
REM R1 = 0.0548 for 966 Fo > 4sig(Fo) and 0.0765 for all 1055 data
REM 57 parameters refined using 2 restraints

END  
     
WGHT      0.1412      0.1454 

REM Highest difference peak  0.946,  deepest hole -0.880,  1-sigma level  0.270
Q1    1   0.2499  0.2663  0.7181  11.00000  0.05    0.95
Q2    1   0.3909  0.2754  0.7342  11.00000  0.05    0.76
Q3    1   0.2747  0.5872  0.6041  11.00000  0.05    0.70
Q4    1   0.2553  1.1438  0.6718  11.00000  0.05    0.64
Q5    1  -0.3114  0.7806  0.6461  11.00000  0.05    0.61
Q6    1   0.2499  0.9451  0.6978  11.00000  0.05    0.61
Q7    1   0.2399  0.8634  0.7488  11.00000  0.05    0.58
Q8    1   0.1419  0.5550  0.5674  11.00000  0.05    0.55
Q9    1  -0.1762  1.1136  0.6179  11.00000  0.05    0.50
Q10   1  -0.2399  1.0263  0.4982  11.00000  0.05    0.49
Q11   1  -0.4985  1.0351  0.5360  11.00000  0.05    0.49
Q12   1   0.2321  0.9702  0.5033  11.00000  0.05    0.47
Q13   1  -0.0086  1.5372  0.5433  11.00000  0.05    0.45
Q14   1   0.2528  1.0017  0.5576  11.00000  0.05    0.45
Q15   1   0.1306  1.0557  0.5332  11.00000  0.05    0.41
Q16   1  -0.0281  1.0752  0.5584  11.00000  0.05    0.38
Q17   1   0.1057  0.8790  0.6585  11.00000  0.05    0.37
Q18   1   0.2126  1.1534  0.6024  11.00000  0.05    0.36
Q19   1   0.0675  1.1244  0.5763  11.00000  0.05    0.34
Q20   1  -0.4267  0.5446  0.5318  11.00000  0.05    0.32
