TITL CrystalPilot n0025 in P 6/m m m
REM CrystalPilot node n0025 tool=run_shelxl
REM R1 = 0.1287 wR2 = 0.3339 GooF = 1.573
CELL 0.68883 39.19000 39.19000 16.61000 90.0000 90.0000 120.0000
ZERR 24 0.00000 0.00000 0.00000 0.0000 0.0000 0.0000
LATT 1
SYMM X-Y,X,Z
SYMM Y,-X+Y,Z
SYMM -Y,X-Y,Z
SYMM -X+Y,-X,Z
SYMM X-Y,-Y,-Z
SYMM -X,-X+Y,-Z
SYMM -X,-Y,Z
SYMM Y,X,-Z
SYMM -Y,-X,-Z
SYMM -X+Y,Y,-Z
SYMM X,X-Y,-Z
SFAC C O Zr
REM DISP lambda 0.68883 A is not a SHELXL built-in line (Cu/Mo/Ag K-alpha):
REM DISP f'/f'' from cctbx (sasaki: C O Zr), mu = NIST attenuation in
REM DISP barn/atom
DISP $C 0.002 0.002 10.99
DISP $O 0.007 0.006 30.28
DISP $Zr -9.041 2.772 14341.91
UNIT 554.0 124.0 18.0

SHEL 999 1.000

WGHT 0.100000 0.000000
FVAR 0.05261
ZR01  3   0.463828   0.536172   0.500000    10.25000     0.08865     0.08865 =
      0.06952     0.00000     0.00000     0.05603
ZR02  3   0.544746   0.544746   0.393748    10.50000     0.09497     0.09497 =
      0.08601     0.01389     0.01389     0.06009
O003  2   0.481184   0.586344   0.581491    11.00000     0.10823     0.11259 =
      0.09431    -0.00187    -0.00543     0.07525
O004  2   0.533875   0.592978   0.649760    11.00000     0.11768     0.11999 =
      0.12538    -0.03994    -0.02799     0.07057
O005  2   0.527000   0.562931   0.500000    10.50000     0.12674     0.23132 =
      0.10681     0.00000     0.00000     0.12031
O006  2   0.538481   0.538481   0.261707    10.50000     0.20543     0.20543 =
      0.09062     0.01749     0.01749     0.15775
O007  2   0.601105   0.601105   0.412673    10.50000     0.09993     0.09993 =
      0.27547     0.00538     0.00538     0.04772
O008  2   0.517352   0.482648   0.393080    10.50000     0.11944     0.11944 =
      0.15389     0.02798    -0.02798     0.06176
C009  1   0.507642   0.601703   0.634062    11.00000     0.10556     0.11854 =
      0.10549     0.00812    -0.00808     0.07491
C00A  1   0.505001   0.690001   0.780100    11.00000     0.25004     0.12213 =
      0.08849     0.00942    -0.00020     0.13072
O00B  1   0.476815   0.641051   0.672762    11.00000     0.17065     0.12136 =
      0.11544    -0.02282    -0.00577     0.10886
C00C  1   0.506563   0.632320   0.686132    11.00000     0.15522     0.09641 =
      0.10656    -0.02661    -0.01895     0.08239
O00D  1   0.474901   0.669104   0.721793    11.00000     0.21420     0.13269 =
      0.10502    -0.02346    -0.03219     0.10996
C00E  1   0.505190   0.721988   0.831656    11.00000     0.24952     0.11336 =
      0.09960    -0.02891    -0.01617     0.12780
O00F  1   0.505078   0.752539   0.787941    10.50000     0.23256     0.09532 =
      0.14181    -0.01887    -0.03775     0.11628
O00G  1   0.538199   0.652176   0.741127    11.00000     0.19220     0.10983 =
      0.10219    -0.03867    -0.02918     0.08607
C00H  1   0.505192   0.721252   0.914387    11.00000     0.24406     0.12319 =
      0.06634    -0.01893    -0.00401     0.11062
C00I  1   0.504664   0.752332   0.957383    10.50000     0.25579     0.12017 =
      0.07723    -0.00694    -0.01389     0.12790
O00J  1   0.537951   0.681958   0.791372    11.00000     0.25619     0.13474 =
      0.11563    -0.00166    -0.01785     0.13295
O00K  2   0.570180   0.429820   0.133745    10.50000     0.29262
O00L  1   0.504671   0.687470   0.958798    11.00000     0.27920     0.14393 =
      0.08997     0.02238     0.01278     0.13826
C00M  1   0.738997   0.535186   0.500000    10.50000     0.26868
C00N  1   0.594073   0.405927   0.094787    10.50000     0.20616
C00O  1   0.629676   0.629676   0.201153    10.50000     1.30364
C00P  1   0.750828   0.375414   0.500000    10.25000     0.66194
C00Q  1   0.792840   0.396420   0.500000    10.25000     0.41220
C00R  1   0.593707   0.670498   0.000000    10.50000     0.33308
C00S  1   0.705862   0.563747   0.500000    10.50000     0.40302
C00T  1   0.541598   0.458402   0.209151    10.50000     0.43547
C00U  1   0.665425   0.587851   0.500000    10.50000     0.42355
C00V  1   0.718966   0.437932   0.500000    10.25000     0.48039
C00W  1   1.000000   1.000000   1.098263    10.08333     0.98564
C00X  1   0.728234   0.607678   0.500000    10.50000     1.64547
C00Y  1   0.586559   0.642356   0.074315    11.00000     0.99350
C00Z  1   0.484941   0.406818   0.098652    11.00000     0.76066
C010  1   0.748537   0.497074   0.500000    10.25000     1.14558
C011  1   0.957704   0.915408   0.500000    10.25000     2.00000
O012  2   0.643546   0.643546   0.243284    10.50000     0.67015
C013  1   0.547702   0.452298   0.115276    10.50000     1.73931
C014  1   0.928807   0.857614   0.595043    10.50000     1.64868
O015  2   0.666667   0.333333   0.162974    10.16667     0.90798
C017  1   0.530379   0.469621  -0.180235    10.50000     1.64687
C019  1   0.722387   0.464014   0.500000    10.50000     0.88636
C01A  1   0.556575   0.443425   0.000000    10.25000     0.89556
C01B  1   0.933364   0.866729   0.749393    10.50000     1.52850
C01C  1   0.784758   0.392379   0.562697    10.50000     1.38974
C01D  1   0.752675   0.573975   0.598682    11.00000     0.68193
C01E  1   0.946342   0.499130   0.500000    10.50000     1.05563
HKLF 4
END
