TITL CrystalPilot cross-check in P 6/m m m
    job.res
    created by SHELXL-2019/3 at 19:41:21 on 21-Sep-2026
CELL 0.68883 39.19000 39.19000 16.61000 90.0000 90.0000 120.0000
ZERR 24 0.00000 0.00000 0.00000 0.0000 0.0000 0.0000
LATT 1
SYMM X-Y,X,Z
SYMM Y,-X+Y,Z
SYMM -Y,X-Y,Z
SYMM -X+Y,-X,Z
SYMM X-Y,-Y,-Z
SYMM -X,-X+Y,-Z
SYMM -X,-Y,Z
SYMM Y,X,-Z
SYMM -Y,-X,-Z
SYMM -X+Y,Y,-Z
SYMM X,X-Y,-Z
SFAC C O Zr
REM DISP lambda 0.68883 A is not a SHELXL built-in line (Cu/Mo/Ag K-alpha):
REM DISP f'/f'' from cctbx (sasaki: C O Zr), mu = NIST attenuation in
REM DISP barn/atom
DISP $C 0.002 0.002 10.99
DISP $O 0.007 0.006 30.28
DISP $Zr -9.041 2.772 14341.91
UNIT 522.0 124.0 18.0

L.S. 6
BOND $H
CONF
ACTA
FMAP 2
PLAN 20

SHEL 999 1.000

WGHT    0.100000
FVAR       0.05223
ZR01  3    0.463851    0.536149    0.500000    10.25000    0.08793    0.08793 =
         0.06901    0.00000    0.00000    0.05540
ZR02  3    0.544719    0.544719    0.393669    10.50000    0.09377    0.09377 =
         0.08515    0.01331    0.01331    0.05923
O003  2    0.481592    0.586471    0.582090    11.00000    0.11250    0.11167 =
         0.09289   -0.00285   -0.00377    0.07863
O004  2    0.533951    0.593069    0.649469    11.00000    0.11386    0.12427 =
         0.12683   -0.04362   -0.03060    0.07329
O005  2    0.526811    0.562899    0.500000    10.50000    0.12816    0.24996 =
         0.10166    0.00000    0.00000    0.13022
O006  2    0.538125    0.538125    0.262009    10.50000    0.20165    0.20165 =
         0.08766    0.01663    0.01663    0.15481
O007  2    0.601256    0.601256    0.414376    10.50000    0.09678    0.09678 =
         0.29083    0.01561    0.01561    0.04359
O008  2    0.517318    0.482682    0.393421    10.50000    0.11604    0.11604 =
         0.15679    0.02926   -0.02926    0.05892
C009  1    0.508472    0.602109    0.634022    11.00000    0.10533    0.12516 =
         0.09620    0.00132   -0.01708    0.07583
C00A  1    0.505262    0.690309    0.781426    11.00000    0.24047    0.12330 =
         0.08550   -0.00050   -0.02133    0.12631
O00B  1    0.477681    0.641360    0.673541    11.00000    0.16738    0.11426 =
         0.11487   -0.02541   -0.00986    0.10241
C00C  1    0.507408    0.632765    0.686458    11.00000    0.15427    0.09438 =
         0.11275   -0.02801   -0.02299    0.08558
O00D  1    0.475642    0.669342    0.723922    11.00000    0.20293    0.12509 =
         0.11169   -0.01793   -0.02642    0.10611
C00E  1    0.505441    0.721817    0.832198    11.00000    0.24305    0.10918 =
         0.09285   -0.02809   -0.02094    0.12315
O00F  1    0.505286    0.752643    0.790013    10.50000    0.21492    0.09907 =
         0.13000   -0.02090   -0.04180    0.10746
O00G  1    0.538526    0.652106    0.740378    11.00000    0.20374    0.11107 =
         0.10496   -0.05376   -0.04373    0.09021
C00H  1    0.504785    0.720898    0.913485    11.00000    0.23846    0.11872 =
         0.06597   -0.02389   -0.00871    0.10484
C00I  1    0.503236    0.751618    0.956282    10.50000    0.25094    0.12133 =
         0.08067   -0.00859   -0.01719    0.12547
O00J  1    0.537863    0.681979    0.790551    11.00000    0.25909    0.14486 =
         0.11222    0.00459   -0.02352    0.13659
O00K  2    0.569942    0.430058    0.137006    10.50000    0.29731
O00L  1    0.503595    0.686720    0.958423    11.00000    0.26130    0.14272 =
         0.09309    0.01906    0.01069    0.13527
C00M  1    0.739963    0.533757    0.500000    10.50000    0.26412
C00N  1    0.593938    0.406062    0.098036    10.50000    0.20295
C00O  1    0.654192    0.654192    0.821384    10.50000    1.48237
C00R  1    0.594096    0.670973    0.000000    10.50000    0.31559
C00S  1    0.701604    0.559543    0.500000    10.50000    0.40595
C00T  1    0.540890    0.459110    0.208393    10.50000    0.41317
C00U  1    0.661969    0.579998    0.500000    10.50000    0.46013
C00V  1    0.708994    0.417988    0.500000    10.25000    0.44600
C00W  1    1.000000    1.000000    0.020877    10.08333    0.68205
C00X  1    0.676055    0.618005    0.500000    10.50000    0.97222
C00Y  1    0.602542    0.646086    0.083890    11.00000    0.79943
C00Z  1    0.484942    0.409444    0.124634    11.00000    0.74571
C010  1    0.732148    0.464296    0.500000    10.25000    0.48001
C011  1    0.955365    0.910731    0.500000    10.25000    1.68727
O012  2    0.640370    0.640370    0.233305    10.50000    0.71064
C013  1    0.552331    0.447669    0.818485    10.50000    2.00000
C014  1    0.923307    0.846614    0.654996    10.50000    1.22810
O015  2    0.666667    0.333333    0.160837    10.16667    1.03325
C016  1    1.000000    1.000000    0.995447    10.08333    0.05740
C017  1    0.556898    0.443102   -0.031946    10.50000    1.40289
C018  1    1.000000    1.000000    0.780539    10.08333    2.00000
C01A  1    0.607370    0.392630    0.000000    10.25000    1.01168
C01B  1    0.925048    0.850097    0.812702    10.50000    2.00000
C01D  1    0.734721    0.570316    0.594296    11.00000    0.70330
C01E  1    0.943190    0.509337    0.500000    10.50000    1.46229
HKLF 4




REM  CrystalPilot cross-check in P 6/m m m
REM wR2 = 0.3738, GooF = S = 1.800, Restrained GooF = 1.800 for all data
REM R1 = 0.1459 for 2063 Fo > 4sig(Fo) and 0.2333 for all 4395 data
REM 228 parameters refined using 0 restraints

END  
     
WGHT      0.2000      0.0000 

REM Highest difference peak  1.159,  deepest hole -5.925,  1-sigma level  0.118
Q1    1   0.6051  0.3949  0.5000  10.25000  0.05    1.16
Q2    1   0.6169  0.6169  0.5000  10.25000  0.05    0.60
Q3    1   1.0000  1.0000  0.6016  10.08333  0.05    0.50
Q4    1   0.6099  0.6099  0.1914  10.50000  0.05    0.49
Q5    1   0.6204  0.3796  0.1093  10.50000  0.05    0.45
Q6    1   0.6546  0.6546  0.5000  10.25000  0.05    0.45
Q7    1   0.5000  0.5000  0.1463  10.25000  0.05    0.44
Q8    1   0.6859  0.6157  0.6056  11.00000  0.05    0.43
Q9    1   0.9213  0.8427  0.5000  10.25000  0.05    0.41
Q10   1   1.0000  1.0000  0.5000  10.04167  0.05    0.41
Q11   1   0.4615  0.4122  0.0000  10.50000  0.05    0.39
Q12   1   0.6462  0.6215  0.5000  10.50000  0.05    0.37
Q13   1   0.4673  0.3933  0.0000  10.50000  0.05    0.37
Q14   1   0.7262  0.4524  0.4361  10.50000  0.05    0.37
Q15   1   0.6083  0.7767  0.9611  11.00000  0.05    0.37
Q16   1   0.7731  0.7731  0.8543  10.50000  0.05    0.36
Q17   1   0.6667  0.3333  0.2566  10.16667  0.05    0.36
Q18   1   0.5690  0.6363  0.0739  11.00000  0.05    0.35
Q19   1   0.5740  0.5740  0.0318  10.50000  0.05    0.35
Q20   1   0.6048  0.8024  0.9112  10.50000  0.05    0.35
