TITL CrystalPilot n0011 in P 6/m m m
REM CrystalPilot node n0011 tool=run_shelxl
REM R1 = 0.1754 wR2 = 0.4592 GooF = 2.288
CELL 0.68883 39.19000 39.19000 16.61000 90.0000 90.0000 120.0000
ZERR 24 0.00000 0.00000 0.00000 0.0000 0.0000 0.0000
LATT 1
SYMM X-Y,X,Z
SYMM Y,-X+Y,Z
SYMM -Y,X-Y,Z
SYMM -X+Y,-X,Z
SYMM X-Y,-Y,-Z
SYMM -X,-X+Y,-Z
SYMM -X,-Y,Z
SYMM Y,X,-Z
SYMM -Y,-X,-Z
SYMM -X+Y,Y,-Z
SYMM X,X-Y,-Z
SFAC C O Zr
REM DISP lambda 0.68883 A is not a SHELXL built-in line (Cu/Mo/Ag K-alpha):
REM DISP f'/f'' from cctbx (sasaki: C O Zr), mu = NIST attenuation in
REM DISP barn/atom
DISP $C 0.002 0.002 10.99
DISP $O 0.007 0.006 30.28
DISP $Zr -9.041 2.772 14341.91
UNIT 486.0 124.0 18.0

SHEL 999 1.000

WGHT 0.100000 0.000000
FVAR 0.04958
ZR01  3   0.463851   0.536149   0.500000    10.25000     0.08357     0.08357 =
      0.06277     0.00000     0.00000     0.05278
ZR02  3   0.544743   0.544743   0.393734    10.50000     0.08813     0.08813 =
      0.08201     0.01318     0.01318     0.05588
O003  2   0.481419   0.586554   0.581428    11.00000     0.10545     0.10081 =
      0.08925    -0.00327    -0.00264     0.07046
O004  2   0.533875   0.593139   0.650272    11.00000     0.10576     0.10965 =
      0.12415    -0.04046    -0.02712     0.06377
O005  2   0.527046   0.562888   0.500000    10.50000     0.10399     0.21595 =
      0.09443     0.00000     0.00000     0.10239
O006  2   0.538379   0.538379   0.261805    10.50000     0.20895     0.20895 =
      0.07766     0.01517     0.01517     0.16621
O007  2   0.601227   0.601227   0.411093    10.50000     0.09038     0.09038 =
      0.28483     0.01694     0.01694     0.04674
O008  2   0.517371   0.482629   0.393115    10.50000     0.11124     0.11124 =
      0.15422     0.02419    -0.02419     0.06042
C009  1   0.508181   0.602077   0.633793    11.00000     0.11366     0.10543 =
      0.09663    -0.00038    -0.00764     0.07412
C00A  1   0.504239   0.689279   0.780818    11.00000     0.25351     0.10141 =
      0.08007     0.00551    -0.00140     0.12112
O00B  1   0.477492   0.641218   0.673602    11.00000     0.16684     0.11399 =
      0.09853    -0.02407    -0.00921     0.09620
C00C  1   0.507722   0.632729   0.685928    11.00000     0.14570     0.09552 =
      0.10922    -0.01911    -0.01704     0.08657
O00D  1   0.474547   0.669415   0.722846    11.00000     0.21269     0.11732 =
      0.09348    -0.02895    -0.02709     0.09937
C00E  1   0.504526   0.721754   0.832770    11.00000     0.22014     0.09672 =
      0.09976    -0.02245    -0.01029     0.10546
O00F  1   0.502918   0.751459   0.789756    10.50000     0.23947     0.09065 =
      0.11963    -0.01905    -0.03811     0.11973
O00G  1   0.539109   0.652344   0.740942    11.00000     0.17728     0.11336 =
      0.10300    -0.04569    -0.03971     0.07962
C00H  1   0.504591   0.721247   0.915270    11.00000     0.23648     0.12686 =
      0.05482    -0.01645    -0.00405     0.10052
C00I  1   0.503383   0.751691   0.958927    10.50000     0.26603     0.11399 =
      0.06565    -0.00869    -0.01737     0.13301
O00J  1   0.538117   0.681747   0.791651    11.00000     0.24414     0.12122 =
      0.12310     0.00150    -0.01215     0.12507
O00K  2   0.569078   0.430922   0.135474    10.50000     0.28491
O00L  1   0.504117   0.686738   0.959817    11.00000     0.26949     0.14379 =
      0.07888     0.01894     0.00600     0.13732
C00N  1   0.593560   0.406440   0.098313    10.50000     0.20573
C00O  1   0.610965   0.610965   0.410879    10.50000     1.70821
C00P  1   0.762722   0.381361   0.500000    10.25000     0.39387
C00Q  1   0.802321   0.401160   0.500000    10.25000     0.30461
C00R  1   0.595534   0.672469   0.000000    10.50000     0.32886
C00S  1   0.712353   0.559702   0.500000    10.50000     0.53546
C00T  1   0.538704   0.461296   0.207740    10.50000     0.39359
C00U  1   0.665513   0.583859   0.500000    10.50000     0.42019
C00W  1   1.000000   1.000000  -0.130509    10.08333     2.00000
C00Y  1   0.570810   0.627585   0.065121    11.00000     1.07489
C00Z  1   0.489193   0.412326   0.115675    11.00000     0.79038
C011  1   0.934870   0.869741   0.500000    10.25000     2.00000
O012  2   0.640186   0.640186   0.253764    10.50000     0.66091
C013  1   0.514514   0.485486   0.178785    10.50000     1.24280
C014  1   0.919399   0.838799   0.652973    10.50000     1.90372
O015  2   0.666667   0.333333   0.207066    10.16667     1.05765
C016  1   1.000000   1.000000   0.041066    10.08333     0.26060
C017  1   0.560977   0.439023  -0.259058    10.50000     2.00000
C018  1   1.000000   1.000000   1.897499    10.08333    -0.00100
C019  1   0.801869   0.445563   0.500000    10.50000     0.92765
C01A  1   0.537696   0.462304   0.000000    10.25000     1.00643
C01B  1   0.929021   0.858041   0.618451    10.50000     0.07276
C01C  1   0.765445   0.382723   0.610233    10.50000     1.47118
HKLF 4
END
