TITL CrystalPilot cross-check in P 21 21 21
    job.res
    created by SHELXL-2019/3 at 20:27:18 on 21-Sep-2026
CELL 0.71073 5.78803 5.96863 12.29941 90.0000 90.0000 90.0000
ZERR 4 0.00000 0.00000 0.00000 0.0000 0.0000 0.0000
LATT -1
SYMM X+1/2,-Y+1/2,-Z
SYMM -X,Y+1/2,-Z+1/2
SYMM -X+1/2,-Y,Z+1/2
SFAC C H N O
UNIT 12.0 28.0 4.0 8.0

L.S. 15
BOND $H
CONF
ACTA
FMAP 2
PLAN 20
TEMP -123.1

SADI 0.020 O2 C1 O2B C1
SIMU 0.040 0.080 O2 O2B

WGHT    0.100000
FVAR       1.37386   0.70221
O1    4    0.260809    1.054178    0.684147    11.00000    0.00734    0.02869 =
         0.01975   -0.00342   -0.00163   -0.00071
PART 1
O2    4    0.125098    0.767680    0.585224    21.00000    0.00699
PART 0
N1    3   -0.316284    0.853311    0.637621    11.00000    0.00793    0.01580 =
         0.01453   -0.00089    0.00021    0.00030
AFIX 137
H1A   2   -0.461089    0.909917    0.646334    11.00000   -1.50000
H1B   2   -0.295376    0.736372    0.684065    11.00000   -1.50000
H1C   2   -0.298366    0.805073    0.567943    11.00000   -1.50000
AFIX   0
C2    1   -0.144943    1.028846    0.661101    11.00000    0.00746    0.01820 =
         0.01225    0.00041   -0.00091    0.00130
AFIX  13
H2    2   -0.159085    1.072300    0.739341    11.00000   -1.20000
AFIX   0
C1    1    0.100311    0.943768    0.640944    11.00000    0.01123    0.01218 =
         0.00943    0.00110    0.00005    0.00024
C3    1   -0.196560    1.235193    0.590767    11.00000    0.01296    0.01619 =
         0.02516    0.00343   -0.00034    0.00060
AFIX 137
H3A   2   -0.084785    1.353688    0.607359    11.00000   -1.50000
H3B   2   -0.353097    1.288998    0.606272    11.00000   -1.50000
H3C   2   -0.184766    1.194684    0.513752    11.00000   -1.50000
AFIX   0
PART 2
O2B   4    0.128659    0.802117    0.575046   -21.00000    0.04624
PART 0
HKLF 4




REM  CrystalPilot cross-check in P 21 21 21
REM wR2 = 0.2133, GooF = S = 1.738, Restrained GooF = 1.750 for all data
REM R1 = 0.0485 for 966 Fo > 4sig(Fo) and 0.0699 for all 1055 data
REM 57 parameters refined using 2 restraints

END  
     
WGHT      0.1318      0.1171 

REM Highest difference peak  0.879,  deepest hole -0.780,  1-sigma level  0.264
Q1    1  -0.2713  0.7606  0.7864  11.00000  0.05    0.88
Q2    1  -0.1000  0.7768  0.7663  11.00000  0.05    0.71
Q3    1   0.2939  0.5826  0.6059  11.00000  0.05    0.69
Q4    1   0.1074  0.5438  0.5611  11.00000  0.05    0.57
Q5    1   0.1295  0.6728  0.6065  11.00000  0.05    0.57
Q6    1   0.2134  0.8774  0.7377  11.00000  0.05    0.57
Q7    1  -0.3100  0.7832  0.6478  11.00000  0.05    0.51
Q8    1  -0.2455  1.0110  0.5005  11.00000  0.05    0.48
Q9    1  -0.5628  0.8184  0.7460  11.00000  0.05    0.47
Q10   1  -0.4627  1.0385  0.5339  11.00000  0.05    0.45
Q11   1  -0.1704  1.1055  0.6300  11.00000  0.05    0.45
Q12   1  -0.1703  1.4745  0.4967  11.00000  0.05    0.43
Q13   1  -0.0664  1.0538  0.5485  11.00000  0.05    0.42
Q14   1  -0.6092  1.0080  0.5729  11.00000  0.05    0.42
Q15   1   0.1291  1.0561  0.5251  11.00000  0.05    0.39
Q16   1   0.1128  0.8828  0.6510  11.00000  0.05    0.39
Q17   1  -0.1896  1.0558  0.5699  11.00000  0.05    0.35
Q18   1   0.0819  1.1112  0.5680  11.00000  0.05    0.34
Q19   1   0.2035  0.9724  0.4956  11.00000  0.05    0.33
Q20   1   0.1846  1.1342  0.5977  11.00000  0.05    0.33
