TITL alanine final LIST4 and geometry tables
    alanine.res
    created by SHELXL-2019/3 at 00:51:48 on 22-Sep-2026
CELL 0.71073 5.792855 5.966347 12.293563 90 90 90
ZERR 4 0.00088026 0.00037921 0.00203202 0 0 0
LATT -1
SYMM 1/2-X,-Y,1/2+Z
SYMM -X,1/2+Y,1/2-Z
SYMM 1/2+X,1/2-Y,-Z
SFAC C H N O
UNIT 12 28 4 8
TEMP -123.15
SHEL 999 0.77
L.S. 20
BOND $H
EQIV $1 x-1/2, -y+3/2, -z+1
HTAB N1 O2_$1
EQIV $2 x-1, y, z
HTAB N1 O1_$2
EQIV $3 -x+1, y+1/2, -z+1/2
HTAB N1 O1_$3
FMAP 2
PLAN 20
ACTA
LIST 4
CONF
WGHT    0.037500    0.050500
FVAR       1.44033
O1    4    0.761081    0.444175    0.315696    11.00000    0.00984    0.02511 =
         0.02137   -0.00394    0.00099    0.00072
O2    4    0.625458    0.727256    0.416194    11.00000    0.01458    0.02364 =
         0.01873   -0.00502   -0.00151   -0.00158
N1    3    0.183971    0.649699    0.362263    11.00000    0.00914    0.01799 =
         0.01544   -0.00116   -0.00008    0.00003
H1A   2    0.191748    0.691850    0.433299    11.00000    0.02651
H1B   2    0.032096    0.587104    0.352466    11.00000    0.02949
H1C   2    0.206319    0.768286    0.315146    11.00000    0.02578
C1    1    0.600561    0.556489    0.359020    11.00000    0.01183    0.01791 =
         0.00940    0.00261    0.00034   -0.00098
C2    1    0.355022    0.469025    0.338946    11.00000    0.00916    0.01871 =
         0.01411   -0.00209    0.00053   -0.00002
AFIX  13
H2    2    0.340892    0.425194    0.260716    11.00000   -1.20000
AFIX   0
C3    1    0.303401    0.265199    0.408960    11.00000    0.01450    0.01930 =
         0.02466    0.00159    0.00022   -0.00190
AFIX 137
H3A   2    0.306231    0.308278    0.485875    11.00000   -1.50000
H3B   2    0.420231    0.149578    0.395718    11.00000   -1.50000
H3C   2    0.150449    0.206292    0.390441    11.00000   -1.50000
AFIX   0
HKLF 4




REM  alanine final LIST4 and geometry tables
REM wR2 = 0.0732, GooF = S = 1.095, Restrained GooF = 1.095 for all data
REM R1 = 0.0302 for 913 Fo > 4sig(Fo) and 0.0322 for all 964 data
REM 68 parameters refined using 0 restraints

END  
     
WGHT      0.0373      0.0511 

REM Highest difference peak  0.179,  deepest hole -0.182,  1-sigma level  0.041
Q1    1   0.4613  0.5147  0.3520  11.00000  0.05    0.18
Q2    1   0.7108  0.3667  0.2596  11.00000  0.05    0.15
Q3    1   0.6972  0.5140  0.2350  11.00000  0.05    0.13
Q4    1   0.5217  0.7735  0.4356  11.00000  0.05    0.12
Q5    1   0.6269  0.4265  0.4805  11.00000  0.05    0.11
Q6    1   0.3256  0.3589  0.3662  11.00000  0.05    0.11
Q7    1   0.3454  0.4671  0.2879  11.00000  0.05    0.11
Q8    1   0.4654 -0.0215  0.3554  11.00000  0.05    0.11
Q9    1   0.6501  0.2971  0.3188  11.00000  0.05    0.10
Q10   1   0.8126  0.1558  0.3556  11.00000  0.05    0.10
Q11   1   0.0777  0.7056  0.2201  11.00000  0.05    0.10
Q12   1   0.2921  0.9401  0.3866  11.00000  0.05    0.10
Q13   1  -0.0377  0.9278  0.3738  11.00000  0.05    0.10
Q14   1   0.5502  0.6908  0.4910  11.00000  0.05    0.10
Q15   1   0.1829  0.3280  0.1953  11.00000  0.05    0.10
Q16   1   0.1702  0.5566  0.1989  11.00000  0.05    0.10
Q17   1  -0.1221  0.5787  0.4390  11.00000  0.05    0.09
Q18   1   0.2643  0.4907  0.5011  11.00000  0.05    0.09
Q19   1   0.7482  0.2735  0.3001  11.00000  0.05    0.09
Q20   1   0.2700  0.9377  0.3260  11.00000  0.05    0.09
