TITL alanine alanine, raw-data refinement
    alanine.res
    created by SHELXL-2019/3 at 21:15:47 on 21-Sep-2026
REM Prepared from work\model\weighted2.res
CELL 0.71073 5.792845 5.964171 12.290694 90.000000 90.000000 90.000000
ZERR 4 0.000443 0.000632 0.001153 0.000000 0.000000 0.000000
LATT -1
SYMM 1/2-X, -Y, 1/2+Z
SYMM -X, 1/2+Y, 1/2-Z
SYMM 1/2+X, 1/2-Y, -Z
SFAC C H N O
UNIT 12 28 4 8
TEMP -123.15
L.S. 20
ACTA
LIST 4
BOND $H
REM Prepared from work\model\weighted.res
EQIV $1 -x+1, y-1/2, -z+3/2
HTAB C2 O2_$1
EQIV $2 x+1/2, -y+3/2, -z+1
HTAB N1 O2_$2
EQIV $3 -x+1, y+1/2, -z+3/2
HTAB N1 O1_$3
EQIV $4 x+1, y, z
HTAB N1 O1_$4
HTAB N1 O2_$4
REM Prepared from work\model\hfree.res
REM Prepared from work\model\nonh2.res
REM Prepared from work\model\solve_a.res
REM Old TITL 19 in P212121
REM SHELXT solution in P2(1)2(1)2(1): R1 0.087, Rweak 0.017, Alpha 0.005
REM <I/s>   0.175 for   16 systematic absences,  Orientation as input
REM Flack x =  0.227 ( 0.854 ) from   315 Parsons' quotients
REM Formula found by SHELXT:  C3 N O2

FMAP 2
PLAN 20
WGHT    0.033700    0.075500
FVAR       1.42920
O1    4    0.238913    0.444042    0.684238    11.00000    0.01011    0.02514 =
         0.02171    0.00434    0.00112   -0.00059
O2    4    0.374493    0.727268    0.583772    11.00000    0.01467    0.02345 =
         0.01878    0.00503   -0.00156    0.00159
N1    3    0.816151    0.649720    0.637743    11.00000    0.00889    0.01840 =
         0.01584    0.00132   -0.00024    0.00008
C1    1    0.399554    0.556408    0.640986    11.00000    0.01156    0.01812 =
         0.01029   -0.00298    0.00024    0.00091
C2    1    0.645030    0.469034    0.661082    11.00000    0.00941    0.01870 =
         0.01358    0.00202    0.00044   -0.00015
C3    1    0.696506    0.265431    0.590959    11.00000    0.01471    0.01934 =
         0.02534   -0.00238    0.00019    0.00152
H2    2    0.660734    0.433186    0.737206    11.00000    0.00978
H1A   2    0.806324    0.694145    0.566315    11.00000    0.02916
H1B   2    0.792640    0.770815    0.685748    11.00000    0.02475
H1C   2    0.967135    0.586700    0.647858    11.00000    0.02784
H3A   2    0.848593    0.204838    0.607187    11.00000    0.02610
H3B   2    0.577438    0.146561    0.605172    11.00000    0.02619
H3C   2    0.696639    0.311587    0.511894    11.00000    0.02791
HKLF 4




REM  alanine alanine, raw-data refinement
REM wR2 = 0.0727, GooF = S = 1.075, Restrained GooF = 1.075 for all data
REM R1 = 0.0304 for 918 Fo > 4sig(Fo) and 0.0333 for all 984 data
REM 83 parameters refined using 0 restraints

END  
     
WGHT      0.0329      0.0796 

REM Highest difference peak  0.162,  deepest hole -0.210,  1-sigma level  0.042
Q1    1   0.2894  0.3634  0.7404  11.00000  0.05    0.16
Q2    1   0.5385  0.5186  0.6462  11.00000  0.05    0.16
Q3    1   0.6713  0.3576  0.6309  11.00000  0.05    0.14
Q4    1   0.4860  0.7959  0.5596  11.00000  0.05    0.13
Q5    1   0.7030 -0.0577  0.6163  11.00000  0.05    0.12
Q6    1   0.9182  0.7005  0.7763  11.00000  0.05    0.12
Q7    1   0.3628  0.3061  0.6799  11.00000  0.05    0.12
Q8    1   0.7280  0.4407  0.7779  11.00000  0.05    0.11
Q9    1   0.1783  0.1534  0.6436  11.00000  0.05    0.11
Q10   1   0.5333 -0.0227  0.6405  11.00000  0.05    0.11
Q11   1   0.9222  0.9428  0.5360  11.00000  0.05    0.11
Q12   1   0.8236  0.3415  0.8043  11.00000  0.05    0.11
Q13   1   0.4064  0.8568  0.6438  11.00000  0.05    0.10
Q14   1   1.1119  0.8408  0.6413  11.00000  0.05    0.10
Q15   1   0.2707  0.3153  0.6155  11.00000  0.05    0.10
Q16   1   0.3664  0.4175  0.5195  11.00000  0.05    0.10
Q17   1   0.1109  0.3020  0.6413  11.00000  0.05    0.10
Q18   1   0.4959  0.7525  0.5067  11.00000  0.05    0.10
Q19   1   0.8850 -0.0262  0.5755  11.00000  0.05    0.10
Q20   1   0.3558  0.0322  0.6376  11.00000  0.05    0.10
