TITL alanine all, raw-data refinement
    all.res
    created by SHELXL-2019/3 at 21:16:00 on 21-Sep-2026
REM Prepared from work\model\weighted2.res
CELL 0.71073 5.792845 5.964171 12.290694 90.000000 90.000000 90.000000
ZERR 4 0.000443 0.000632 0.001153 0.000000 0.000000 0.000000
LATT -1
SYMM 1/2-X, -Y, 1/2+Z
SYMM -X, 1/2+Y, 1/2-Z
SYMM 1/2+X, 1/2-Y, -Z
SFAC C H N O
UNIT 12 28 4 8
TEMP -123.15
L.S. 20
ACTA
LIST 4
BOND $H
REM Prepared from work\model\weighted.res
EQIV $1 -x+1, y-1/2, -z+3/2
HTAB C2 O2_$1
EQIV $2 x+1/2, -y+3/2, -z+1
HTAB N1 O2_$2
EQIV $3 -x+1, y+1/2, -z+3/2
HTAB N1 O1_$3
EQIV $4 x+1, y, z
HTAB N1 O1_$4
HTAB N1 O2_$4
REM Prepared from work\model\hfree.res
REM Prepared from work\model\nonh2.res
REM Prepared from work\model\solve_a.res
REM Old TITL 19 in P212121
REM SHELXT solution in P2(1)2(1)2(1): R1 0.087, Rweak 0.017, Alpha 0.005
REM <I/s>   0.175 for   16 systematic absences,  Orientation as input
REM Flack x =  0.227 ( 0.854 ) from   315 Parsons' quotients
REM Formula found by SHELXT:  C3 N O2

FMAP 2
PLAN 20
WGHT    0.033700    0.075500
FVAR       1.42826
O1    4    0.238896    0.444039    0.684259    11.00000    0.01022    0.02493 =
         0.02179    0.00448    0.00110   -0.00067
O2    4    0.374463    0.727311    0.583752    11.00000    0.01462    0.02332 =
         0.01872    0.00508   -0.00161    0.00153
N1    3    0.816122    0.649620    0.637717    11.00000    0.00907    0.01831 =
         0.01561    0.00141   -0.00021    0.00008
C1    1    0.399620    0.556400    0.641019    11.00000    0.01125    0.01823 =
         0.01050   -0.00295    0.00009    0.00100
C2    1    0.645050    0.469053    0.661106    11.00000    0.00928    0.01870 =
         0.01345    0.00196    0.00031    0.00018
C3    1    0.696478    0.265332    0.590939    11.00000    0.01446    0.01937 =
         0.02509   -0.00245    0.00031    0.00133
H2    2    0.660858    0.432954    0.737289    11.00000    0.01004
H1A   2    0.806584    0.693855    0.566780    11.00000    0.02752
H1B   2    0.792904    0.770270    0.685567    11.00000    0.02378
H1C   2    0.967426    0.586103    0.647948    11.00000    0.02799
H3A   2    0.848714    0.205075    0.607277    11.00000    0.02650
H3B   2    0.577757    0.146926    0.605174    11.00000    0.02568
H3C   2    0.696636    0.311564    0.511876    11.00000    0.02766
HKLF 4




REM  alanine all, raw-data refinement
REM wR2 = 0.0747, GooF = S = 1.075, Restrained GooF = 1.075 for all data
REM R1 = 0.0316 for 968 Fo > 4sig(Fo) and 0.0353 for all 1047 data
REM 83 parameters refined using 0 restraints

END  
     
WGHT      0.0337      0.0752 

REM Highest difference peak  0.192,  deepest hole -0.203,  1-sigma level  0.045
Q1    1   0.2724  0.3596  0.7420  11.00000  0.05    0.19
Q2    1   0.6708  0.3683  0.6252  11.00000  0.05    0.17
Q3    1   0.5404  0.5341  0.6456  11.00000  0.05    0.16
Q4    1   0.4777  0.7806  0.5577  11.00000  0.05    0.14
Q5    1   0.3486  0.0372  0.6345  11.00000  0.05    0.13
Q6    1   0.3672  0.4143  0.5206  11.00000  0.05    0.13
Q7    1   1.1089  0.8440  0.6441  11.00000  0.05    0.12
Q8    1   0.9217  0.6865  0.7824  11.00000  0.05    0.12
Q9    1   0.9228  0.9451  0.5356  11.00000  0.05    0.12
Q10   1   0.5351  0.3446  0.4954  11.00000  0.05    0.12
Q11   1   0.3876  0.8450  0.6394  11.00000  0.05    0.12
Q12   1   0.2912  0.3260  0.6080  11.00000  0.05    0.12
Q13   1   0.7066  0.9349  0.6232  11.00000  0.05    0.12
Q14   1   0.1761  0.1707  0.6448  11.00000  0.05    0.12
Q15   1   0.2789  0.5239  0.7218  11.00000  0.05    0.11
Q16   1   1.0316  0.9187  0.6382  11.00000  0.05    0.11
Q17   1   0.9352  0.3299  0.6418  11.00000  0.05    0.11
Q18   1   0.5426 -0.0612  0.5431  11.00000  0.05    0.11
Q19   1   0.5940  0.2047  0.5100  11.00000  0.05    0.11
Q20   1   0.3956  0.9446  0.5470  11.00000  0.05    0.11
