TITL NU1000 framework only: SHELXT-derived atomic sites
    verify_nomask.res
    created by SHELXL-2019/3 at 00:13:59 on 22-Sep-2026
CELL  0.68883  39.1900  39.1900  16.6100   90.000   90.000  120.000
ZERR 3 0 0 0 0 0 0
LATT  1
SYMM -Y, X-Y, Z
SYMM -X+Y, -X, Z
SYMM -X, -Y, Z
SYMM Y, -X+Y, Z
SYMM X-Y, X, Z
SYMM Y, X, -Z
SYMM X-Y, -Y, -Z
SYMM -X, -X+Y, -Z
SYMM -Y, -X, -Z
SYMM -X+Y, Y, -Z
SYMM X, X-Y, -Z
SFAC C O ZR H
DISP C 0.002849 0.001502 10.991356
DISP O 0.010096 0.005662 30.280019
DISP Zr -8.668698 3.732734 14341.910601
DISP H 0.000000 0.000000 0.622647
UNIT 264 96 18 132
L.S. 0
SHEL 100 1.1
BOND $H
LIST 6
FMAP 2
PLAN 40
EQIV $11 2-Y,2-X,Z
EQIV $12 X,Y,2-Z
EQIV $13 2-Y,2-X,2-Z
RIGU 0.008 0.016
SIMU 0.02 0.04 2.0
DFIX 1.39 0.025 C2 C3 C3 C6 C6 C5 C5 C7 C7 C4 C4 C2
DANG 2.408 0.045 C2 C6 C3 C5 C6 C7 C5 C4 C7 C2 C4 C3
FLAT 0.025 C2 C3 C6 C5 C7 C4
FLAT 0.04 O1 O2 C1 C2
SADI 0.025 C1 O1 C1 O2
DFIX 1.40 0.035 C8 C9 C9 C10 C8 C12
DFIX 1.43 0.035 C9 C11 C10 C10_$12
DFIX 1.36 0.035 C11 C11_$12
DANG 2.42 0.06 C8 C10 C8 C11 C10 C11 C9 C12 C9 C11_$12
FLAT 0.03 C8 C9 C10 C11 C12 C8_$11 C9_$11 C11_$11 =
 C8_$12 C9_$12 C10_$12 C11_$12 C12_$12 C8_$13 C9_$13 C11_$13
WGHT    0.200000
FVAR       0.05425
ZR1   3    1.000000    0.455055    0.393714    10.50000    0.07853    0.10219 =
         0.09278   -0.01208    0.00000    0.03927
ZR2   3    1.072265    0.536133    0.500000    10.25000    0.07086    0.09518 =
         0.07863    0.00000    0.00000    0.03543
O1    2    1.105341    0.586892    0.582493    11.00000    0.08003    0.10916 =
         0.09775   -0.00032    0.00549    0.03707
O2    2    1.058562    0.593182    0.649375    11.00000    0.09441    0.12525 =
         0.12839   -0.02509   -0.00297    0.05314
O3    2    1.035893    0.473052    0.500000    10.50000    0.11261    0.12059 =
         0.10765    0.00000    0.00000    0.01696
O4    2    1.000000    0.462606    0.261200    10.50000    0.09335    0.21451 =
         0.08375   -0.03819    0.00000    0.04668
O5    2    1.035982    0.517991    0.393263    10.50000    0.09853    0.12501 =
         0.16674   -0.01597   -0.03194    0.04927
O6    2    1.000000    0.400160    0.410025    10.50000    0.09953    0.11479 =
         0.26633   -0.01712    0.00000    0.04977
C2    1    1.125775    0.632769    0.684716    11.00000    0.10590    0.11965 =
         0.10680   -0.03122   -0.00459    0.02786
C5    1    1.184839    0.689721    0.778554    11.00000    0.11909    0.12579 =
         0.09435   -0.00728   -0.00529    0.00219
C3    1    1.164501    0.641685    0.675608    11.00000    0.09634    0.13341 =
         0.11382   -0.04438   -0.01837    0.03385
AFIX  43
H3    4    1.170411    0.628106    0.637304    11.00000   -1.20000
AFIX   0
C1    1    1.093347    0.601724    0.634712    11.00000    0.09463    0.11415 =
         0.09882   -0.01046    0.00511    0.04513
C4    1    1.114450    0.652197    0.740736    11.00000    0.12390    0.11878 =
         0.11421   -0.04339   -0.00316    0.01254
AFIX  43
H4    4    1.088424    0.646287    0.745844    11.00000   -1.20000
AFIX   0
C6    1    1.194039    0.669623    0.720888    11.00000    0.11297    0.13987 =
         0.11170   -0.03300   -0.01298    0.02155
AFIX  43
H6    4    1.219892    0.675296    0.713720    11.00000   -1.20000
AFIX   0
C12   1    1.247826    0.752174    0.788825    10.50000    0.13665    0.13665 =
         0.10147   -0.00960    0.00960   -0.01293
AFIX  43
H12   4    1.248089    0.751911    0.732845    10.50000   -1.20000
AFIX   0
C7    1    1.144806    0.681109    0.788620    11.00000    0.13978    0.13858 =
         0.10998   -0.02632    0.01059    0.00532
AFIX  43
H7    4    1.138961    0.694720    0.826969    11.00000   -1.20000
AFIX   0
C9    1    1.216702    0.721421    0.914178    11.00000    0.13546    0.12462 =
         0.08859   -0.00177    0.00204   -0.00997
C8    1    1.216607    0.721344    0.830144    11.00000    0.12640    0.11365 =
         0.09508   -0.00960   -0.00004    0.00166
C10   1    1.247651    0.752349    0.956975    10.50000    0.11842    0.11842 =
         0.08185   -0.00275    0.00275   -0.02486
C11   1    1.184726    0.689360    0.959470    11.00000    0.15072    0.14144 =
         0.09018    0.00888   -0.00392   -0.01482
AFIX  43
H11   4    1.164105    0.668684    0.931875    11.00000   -1.20000
AFIX   0
HKLF 4




REM  NU1000 framework only: SHELXT-derived atomic sites
REM wR2 = 0.5032, GooF = S = 1.794, Restrained GooF = 1.737 for all data
REM R1 = 0.1794 for 1837 Fo > 4sig(Fo) and 0.2402 for all 3345 data
REM 155 parameters refined using 273 restraints

END  
     
WGHT      0.2000      0.0000 

REM Highest difference peak  1.404,  deepest hole -1.048,  1-sigma level  0.160
Q1    1   1.1426  0.5713  0.8599  10.50000  0.05    1.40
Q2    1   1.1900  0.5950  0.8978  10.50000  0.05    1.15
Q3    1   1.0752  0.6644  1.0000  10.50000  0.05    0.92
Q4    1   1.2033  0.7402  0.5000  10.50000  0.05    0.88
Q5    1   1.2120  0.6060  0.5000  10.25000  0.05    0.85
Q6    1   0.9365  0.4682  0.2120  10.50000  0.05    0.78
Q7    1   1.0845  0.4138  0.5000  10.50000  0.05    0.77
Q8    1   1.0000  0.0000  0.3962  10.08333  0.05    0.63
Q9    1   1.1436  0.7037  0.5000  10.50000  0.05    0.62
Q10   1   1.0000  0.6165  0.8030  10.50000  0.05    0.61
Q11   1   1.0588  0.6460  0.9276  11.00000  0.05    0.57
Q12   1   1.2750  0.7250  0.5440  10.50000  0.05    0.56
Q13   1   1.0000  0.5000  0.1538  10.25000  0.05    0.56
Q14   1   1.2628  0.7131  0.5184  11.00000  0.05    0.54
Q15   1   1.0000  0.3857  0.5000  10.25000  0.05    0.51
Q16   1   1.0000  0.3513  0.2503  10.50000  0.05    0.51
Q17   1   1.0000  0.4061  0.1392  10.50000  0.05    0.47
Q18   1   1.0417  0.4649  0.1491  11.00000  0.05    0.47
Q19   1   1.2399  0.6200  0.8840  10.50000  0.05    0.46
Q20   1   1.0000  0.5000  0.2292  10.25000  0.05    0.46
Q21   1   1.3028  0.6972  0.8581  10.50000  0.05    0.43
Q22   1   1.0538  0.5909  1.0000  10.50000  0.05    0.43
Q23   1   1.0693  0.6861  0.6082  11.00000  0.05    0.42
Q24   1   1.0451  0.0901  0.5000  10.25000  0.05    0.42
Q25   1   1.3333  0.6667  0.8275  10.16667  0.05    0.42
Q26   1   1.2862  0.6431  0.7583  10.50000  0.05    0.40
Q27   1   1.3096  0.6904  0.7834  10.50000  0.05    0.39
Q28   1   1.0000  0.0717  0.5000  10.25000  0.05    0.38
Q29   1   1.0000  0.0753  0.3953  10.50000  0.05    0.38
Q30   1   1.0707  0.6125  0.8967  11.00000  0.05    0.38
Q31   1   1.0000  1.0000  0.8218  10.08333  0.05    0.38
Q32   1   1.2089  0.8148  0.6920  11.00000  0.05    0.37
Q33   1   0.9683  0.0317  0.5000  10.25000  0.05    0.37
Q34   1   1.1916  0.8084  0.7264  10.50000  0.05    0.35
Q35   1   1.2803  0.6402  0.8751  10.50000  0.05    0.32
Q36   1   1.0000  0.2916  0.2533  10.50000  0.05    0.32
Q37   1   1.1627  0.7692  0.9822  11.00000  0.05    0.31
Q38   1   1.2453  0.8051  0.5774  11.00000  0.05    0.31
Q39   1   1.0000  0.0000  0.5000  10.04167  0.05    0.30
Q40   1   1.0717  0.4991  0.1097  11.00000  0.05    0.30
