TITL CrystalPilot cross-check in P 21 21 21
    job.res
    created by SHELXL-2019/3 at 20:27:25 on 21-Sep-2026
CELL 0.71073 5.78803 5.96863 12.29941 90.0000 90.0000 90.0000
ZERR 4 0.00000 0.00000 0.00000 0.0000 0.0000 0.0000
LATT -1
SYMM X+1/2,-Y+1/2,-Z
SYMM -X,Y+1/2,-Z+1/2
SYMM -X+1/2,-Y,Z+1/2
SFAC C H N O
UNIT 12.0 28.0 4.0 8.0

L.S. 30
BOND $H
CONF
ACTA
FMAP 2
PLAN 20
TEMP -123.1

SADI 0.020 O2 C1 O2B C1
SIMU 0.040 0.080 O2 O2B

WGHT    0.100000
FVAR       1.36204   0.48846
O1    4    0.260927    1.054203    0.684136    11.00000    0.00692    0.02852 =
         0.01930   -0.00345   -0.00130   -0.00066
PART 1
O2    4    0.124973    0.760490    0.586665    21.00000    0.00361
PART 0
N1    3   -0.316269    0.853303    0.637657    11.00000    0.00765    0.01504 =
         0.01414   -0.00083    0.00020    0.00031
AFIX 137
H1A   2   -0.461026    0.909717    0.646823    11.00000   -1.50000
H1B   2   -0.294778    0.735971    0.683807    11.00000   -1.50000
H1C   2   -0.299041    0.805696    0.567838    11.00000   -1.50000
AFIX   0
C2    1   -0.144862    1.028727    0.661100    11.00000    0.00702    0.01765 =
         0.01182    0.00035   -0.00077    0.00123
AFIX  13
H2    2   -0.158984    1.072191    0.739340    11.00000   -1.20000
AFIX   0
C1    1    0.100366    0.943652    0.640966    11.00000    0.01092    0.01129 =
         0.00889    0.00130    0.00001    0.00022
C3    1   -0.196683    1.235169    0.590753    11.00000    0.01241    0.01546 =
         0.02478    0.00344   -0.00036    0.00053
AFIX 137
H3A   2   -0.083777    1.353046    0.606671    11.00000   -1.50000
H3B   2   -0.352517    1.290012    0.606951    11.00000   -1.50000
H3C   2   -0.186834    1.194232    0.513730    11.00000   -1.50000
AFIX   0
PART 2
O2B   4    0.126868    0.792829    0.578545   -21.00000    0.02854
PART 0
HKLF 4




REM  CrystalPilot cross-check in P 21 21 21
REM wR2 = 0.2123, GooF = S = 1.724, Restrained GooF = 1.742 for all data
REM R1 = 0.0492 for 966 Fo > 4sig(Fo) and 0.0705 for all 1055 data
REM 57 parameters refined using 2 restraints

END  
     
WGHT      0.1309      0.1182 

REM Highest difference peak  0.879,  deepest hole -0.777,  1-sigma level  0.264
Q1    1  -0.2719  0.7582  0.7854  11.00000  0.05    0.88
Q2    1  -0.0993  0.7775  0.7652  11.00000  0.05    0.70
Q3    1   0.2951  0.5839  0.6059  11.00000  0.05    0.70
Q4    1   0.2182  0.8785  0.7374  11.00000  0.05    0.58
Q5    1   0.1091  0.5425  0.5594  11.00000  0.05    0.55
Q6    1  -0.3097  0.7830  0.6468  11.00000  0.05    0.52
Q7    1  -0.5639  0.8169  0.7475  11.00000  0.05    0.48
Q8    1  -0.1716  1.1063  0.6270  11.00000  0.05    0.47
Q9    1  -0.5169  1.0234  0.5283  11.00000  0.05    0.46
Q10   1  -0.2548  1.0083  0.4958  11.00000  0.05    0.46
Q11   1  -0.1700  1.4783  0.4954  11.00000  0.05    0.43
Q12   1  -0.0524  1.0640  0.5547  11.00000  0.05    0.42
Q13   1   0.1167  1.0665  0.5302  11.00000  0.05    0.40
Q14   1   0.1130  0.8811  0.6534  11.00000  0.05    0.37
Q15   1  -0.1885  1.0581  0.5680  11.00000  0.05    0.36
Q16   1   0.2103  0.9764  0.4949  11.00000  0.05    0.35
Q17   1   0.0827  1.1049  0.5604  11.00000  0.05    0.34
Q18   1   0.1857  1.1312  0.5978  11.00000  0.05    0.33
Q19   1   0.3218  0.9473  0.6353  11.00000  0.05    0.28
Q20   1   0.1197  1.0063  0.6155  11.00000  0.05    0.25
