TITL CrystalPilot n0015 in P 6/m m m
REM CrystalPilot node n0015 tool=run_shelxl
REM R1 = 0.1344 wR2 = 0.3459 GooF = 1.641
CELL 0.68883 39.19000 39.19000 16.61000 90.0000 90.0000 120.0000
ZERR 24 0.00000 0.00000 0.00000 0.0000 0.0000 0.0000
LATT 1
SYMM X-Y,X,Z
SYMM Y,-X+Y,Z
SYMM -Y,X-Y,Z
SYMM -X+Y,-X,Z
SYMM X-Y,-Y,-Z
SYMM -X,-X+Y,-Z
SYMM -X,-Y,Z
SYMM Y,X,-Z
SYMM -Y,-X,-Z
SYMM -X+Y,Y,-Z
SYMM X,X-Y,-Z
SFAC C O Zr
REM DISP lambda 0.68883 A is not a SHELXL built-in line (Cu/Mo/Ag K-alpha):
REM DISP f'/f'' from cctbx (sasaki: C O Zr), mu = NIST attenuation in
REM DISP barn/atom
DISP $C 0.002 0.002 10.99
DISP $O 0.007 0.006 30.28
DISP $Zr -9.041 2.772 14341.91
UNIT 510.0 124.0 18.0

SHEL 999 1.000

WGHT 0.100000 0.000000
FVAR 0.05224
ZR01  3   0.463821   0.536179   0.500000    10.25000     0.08832     0.08832 =
      0.06968     0.00000     0.00000     0.05675
ZR02  3   0.544728   0.544728   0.393771    10.50000     0.09406     0.09406 =
      0.08446     0.01404     0.01404     0.05926
O003  2   0.481212   0.586259   0.581252    11.00000     0.10495     0.11388 =
      0.08995     0.00005    -0.00684     0.07288
O004  2   0.533980   0.592891   0.648967    11.00000     0.11767     0.12061 =
      0.12808    -0.04183    -0.02970     0.07032
O005  2   0.527164   0.563270   0.500000    10.50000     0.12161     0.22481 =
      0.11358     0.00000     0.00000     0.11493
O006  2   0.537628   0.537628   0.261103    10.50000     0.21242     0.21242 =
      0.08390     0.02118     0.02118     0.16844
O007  2   0.601010   0.601010   0.411901    10.50000     0.10028     0.10028 =
      0.26276     0.00364     0.00364     0.04814
O008  2   0.517343   0.482657   0.392780    10.50000     0.11786     0.11786 =
      0.14035     0.02465    -0.02465     0.06066
C009  1   0.507500   0.601791   0.633118    11.00000     0.10086     0.12409 =
      0.10591     0.01543    -0.00498     0.07199
C00A  1   0.504223   0.689039   0.780166    11.00000     0.27427     0.10357 =
      0.09070     0.00945     0.00696     0.13194
O00B  1   0.476655   0.641511   0.671889    11.00000     0.17320     0.12044 =
      0.11889    -0.02245    -0.00645     0.11189
C00C  1   0.506708   0.633209   0.686012    11.00000     0.16190     0.09474 =
      0.10947    -0.02668    -0.01120     0.08505
O00D  1   0.473988   0.668804   0.721671    11.00000     0.21646     0.12423 =
      0.10938    -0.03026    -0.03447     0.10271
C00E  1   0.504164   0.720726   0.833612    11.00000     0.24178     0.10582 =
      0.10449    -0.01206    -0.01284     0.11880
O00F  1   0.503471   0.751736   0.790317    10.50000     0.22503     0.10871 =
      0.13725    -0.02096    -0.04191     0.11252
O00G  1   0.538772   0.653114   0.741435    11.00000     0.18979     0.11747 =
      0.10470    -0.04202    -0.03550     0.09130
C00H  1   0.504128   0.720318   0.914608    11.00000     0.24482     0.12634 =
      0.05584    -0.02365    -0.00583     0.10324
C00I  1   0.502940   0.751470   0.956584    10.50000     0.24224     0.11958 =
      0.08001    -0.00852    -0.01705     0.12112
O00J  1   0.538695   0.682471   0.791476    11.00000     0.27302     0.13159 =
      0.11759    -0.00093    -0.01388     0.14599
O00K  2   0.569373   0.430627   0.132909    10.50000     0.30084
O00L  1   0.503662   0.686724   0.958675    11.00000     0.29722     0.13834 =
      0.08885     0.02122     0.00768     0.14284
C00M  1   0.738268   0.534934   0.500000    10.50000     0.28003
C00N  1   0.594362   0.405638   0.097389    10.50000     0.20472
C00O  1   0.616025   0.616025   0.500000    10.50000     1.26764
C00P  1   0.753995   0.376997   0.500000    10.25000     0.53223
C00Q  1   0.795134   0.397567   0.500000    10.25000     0.37737
C00R  1   0.596536   0.673698   0.000000    10.50000     0.36539
C00S  1   0.701393   0.560673   0.500000    10.50000     0.39190
C00U  1   0.666451   0.587721   0.500000    10.50000     0.39530
C00V  1   0.726630   0.453259   0.500000    10.25000     0.29411
C00W  1   1.000000   1.000000   0.000000    10.08333     0.88801
C00X  1   0.723881   0.620953   0.500000    10.50000     1.74895
C00Y  1   0.578813   0.654170   0.068018    11.00000     1.20563
C010  1   0.743052   0.486104   0.500000    10.25000     0.92538
C011  1   0.943102   0.886204   0.500000    10.25000     1.17847
O012  2   0.644569   0.644569   0.248224    10.50000     0.70407
C014  1   0.928687   0.857374   0.626358    10.50000     2.00000
O015  2   0.666667   0.333333   0.170329    10.16667     1.02312
C016  1   1.000000   1.000000   0.584005    10.08333     2.00000
C017  1   0.536142   0.463858  -0.191582    10.50000     0.42464
C018  1   1.000000   1.000000   0.293780    10.08333     2.00000
C019  1   0.734970   0.442291   0.500000    10.50000     0.76217
C01A  1   0.553992   0.446008   0.000000    10.25000     1.94122
C01B  1   0.926373   0.852747   0.678802    10.50000     1.53781
C01C  1   0.782835   0.391417   0.591362    10.50000     0.90894
C01D  1   0.743700   0.584442   0.598841    11.00000     0.63086
C01E  1   0.964028   0.505790   0.500000    10.50000     0.74489
HKLF 4
END
