TITL NU-1000 framework-only average structure in P6/mmm
    nu1000_framework.res
    created by SHELXL-2019/3 at 22:01:29 on 21-Sep-2026
CELL  0.68883  39.1900  39.1900  16.6100   90.000   90.000  120.000
ZERR 3 0 0 0 0 0 0
LATT  1
SYMM -Y, X-Y, Z
SYMM -X+Y, -X, Z
SYMM -X, -Y, Z
SYMM Y, -X+Y, Z
SYMM X-Y, X, Z
SYMM Y, X, -Z
SYMM X-Y, -Y, -Z
SYMM -X, -X+Y, -Z
SYMM -Y, -X, -Z
SYMM -X+Y, Y, -Z
SYMM X, X-Y, -Z
SFAC C O ZR H
DISP C 0.0018766 0.0015000 5.8232
DISP O 0.0070649 0.0056766 22.0375
DISP ZR -9.0413504 2.7716699 10760.0761
DISP H 0 0 0
UNIT 264 96 18 132
SHEL 999 1.0
BOND $H
ACTA
LIST 6
FMAP 2
PLAN 60
L.S. 15
EQIV $1 -x+y,y,z
EQIV $2 x,y,1-z
DFIX 1.39 0.02 C1 C3 C3 C2 C2 C4 C4 C6 C6 C8 C8 C1
DANG 2.407 0.04 C1 C2 C3 C4 C2 C6 C4 C8 C6 C1 C8 C3
DFIX 1.48 0.03 C1 C7
DFIX 1.49 0.03 C4 C12
DFIX 1.26 0.02 C12 O1 C12 O2
DANG 2.22 0.04 O1 O2
DFIX 1.40 0.03 C5 C7 C7 C10 C9 C10 C10 C11 C9 C9_$2 C11 C11_$2
DANG 2.42 0.05 C5 C10 C7 C9 C7 C11 C9 C11 C7 C7_$1
FLAT 0.03 C1 C3 C2 C4 C6 C8 C12
FLAT 0.03 C5 C7 C9 C10 C11 C7_$1 C10_$1 C11_$1
RIGU 0.004 C1 > C12 O1 O2
SIMU 0.02 0.04 2.0 C1 > C12 O1 O2
ABIN
REM Framework coordinates only; pore contribution is in the FAB file.
REM Temperature and cell standard uncertainties were not supplied.
REM Node O protonation and terminal O ligand identities are unresolved.
REM Formula records coordinate-model atoms, not a complete sample formula.
WGHT    0.143400
FVAR       0.05376
ZR1   3    0.463818    0.536182    1.000000    10.25000    0.09212    0.09212 =
         0.07274    0.00000    0.00000    0.05920
ZR2   3    0.454961    0.454961    0.893658    10.50000    0.09644    0.09644 =
         0.08757   -0.01218   -0.01218    0.06066
O1    2    0.413076    0.518167    0.917415    11.00000    0.10064    0.11119 =
         0.09808   -0.00563   -0.00419    0.06990
O2    2    0.406705    0.465622    0.850332    11.00000    0.12280    0.11772 =
         0.12791   -0.03094   -0.03327    0.07666
O3    2    0.435765    0.472211    1.000000    10.50000    0.19915    0.11287 =
         0.10276    0.00000    0.00000    0.09678
O4    2    0.463726    0.463726    0.760049    10.50000    0.21457    0.21457 =
         0.08604   -0.04183   -0.04183    0.17164
O5    2    0.399723    0.399723    0.911297    10.50000    0.10720    0.10720 =
         0.26751   -0.02392   -0.02392    0.05632
O6    2    0.518254    0.481746    0.892499    10.50000    0.12907    0.12907 =
         0.14602    0.01540   -0.01540    0.07923
C1    1    0.310236    0.495015    0.720540    11.00000    0.11354    0.22214 =
         0.09100   -0.01263   -0.01106    0.10776
C2    1    0.358499    0.522453    0.824572    11.00000    0.13223    0.16641 =
         0.11274   -0.02189   -0.04259    0.10344
AFIX  43  0.9300
H2    4    0.371650    0.541825    0.863316    11.00000   -1.20000
AFIX   0
C3    1    0.330399    0.523372    0.777343    11.00000    0.13324    0.19338 =
         0.11220   -0.01109   -0.02860    0.10916
AFIX  43  0.9300
H3    4    0.324880    0.543686    0.783966    11.00000   -1.20000
AFIX   0
C4    1    0.367270    0.492954    0.814765    11.00000    0.11705    0.16946 =
         0.10592   -0.02856   -0.02884    0.09759
C5    1    0.247349    0.494698    0.709682    10.50000    0.12486    0.24551 =
         0.10024   -0.01923   -0.00962    0.12276
AFIX  43  0.9300
H5    4    0.247326    0.494652    0.765671    10.50000   -1.20000
AFIX   0
C6    1    0.347310    0.461757    0.760070    11.00000    0.11220    0.21090 =
         0.11234   -0.04367   -0.04392    0.09888
AFIX  43  0.9300
H6    4    0.352490    0.441091    0.756590    11.00000   -1.20000
AFIX   0
C7    1    0.278333    0.494731    0.669284    11.00000    0.10863    0.23486 =
         0.09181   -0.01515   -0.01481    0.11133
C8    1    0.319425    0.463572    0.711551    11.00000    0.12498    0.24173 =
         0.11350   -0.04510   -0.03033    0.11580
AFIX  43  0.9300
H8    4    0.306371    0.444312    0.672553    11.00000   -1.20000
AFIX   0
C9    1    0.247427    0.494854    0.542984    10.50000    0.12061    0.27570 =
         0.08263   -0.00608   -0.00304    0.13785
C10   1    0.278167    0.494798    0.585736    11.00000    0.11911    0.26529 =
         0.08817   -0.00311   -0.00462    0.12624
C11   1    0.309874    0.494902    0.540374    11.00000    0.13940    0.29401 =
         0.08936    0.00355    0.00239    0.13740
AFIX  43  0.9300
H11   4    0.330589    0.494970    0.567829    11.00000   -1.20000
AFIX   0
C12   1    0.397236    0.490920    0.865354    11.00000    0.11227    0.12337 =
         0.09388   -0.02029   -0.01595    0.07685
HKLF 4




REM  NU-1000 framework-only average structure in P6/mmm
REM wR2 = 0.2722, GooF = S = 0.987, Restrained GooF = 0.975 for all data
REM R1 = 0.0827 for 2063 Fo > 4sig(Fo) and 0.1215 for all 4395 data
REM 155 parameters refined using 220 restraints

END  
     
WGHT      0.1435      0.0000 

REM Highest difference peak  0.491,  deepest hole -0.869,  1-sigma level  0.068
Q1    1   0.3863  0.3863  1.0000  10.25000  0.05    0.49
Q2    1   0.5000  0.5000  0.7202  10.25000  0.05    0.48
Q3    1   0.4493  0.5507  0.9541  10.50000  0.05    0.42
Q4    1   0.4554  0.4554  0.7007  10.50000  0.05    0.35
Q5    1   0.4262  0.4386  0.8480  11.00000  0.05    0.32
Q6    1   0.3894  0.3710  0.8961  11.00000  0.05    0.29
Q7    1   0.3866  0.5368  0.7801  11.00000  0.05    0.28
Q8    1   0.4476  0.4639  0.7747  11.00000  0.05    0.28
Q9    1   0.3778  0.3778  0.8891  10.50000  0.05    0.25
Q10   1   0.3761  0.5609  0.8445  11.00000  0.05    0.25
Q11   1   0.4425  0.4704  0.8413  11.00000  0.05    0.23
Q12   1   0.3937  0.5337  0.8904  11.00000  0.05    0.22
Q13   1   0.3744  0.4602  0.8914  11.00000  0.05    0.20
Q14   1   0.3822  0.4633  0.7926  11.00000  0.05    0.20
Q15   1   0.3369  0.4332  0.8130  11.00000  0.05    0.20
Q16   1   0.3544  0.4309  0.7771  11.00000  0.05    0.19
Q17   1   0.3739  0.4771  0.8189  11.00000  0.05    0.18
Q18   1   0.3488  0.4718  0.7596  11.00000  0.05    0.18
Q19   1   0.3534  0.5410  0.8805  11.00000  0.05    0.18
Q20   1   0.3683  0.4582  0.7026  11.00000  0.05    0.17
Q21   1   0.4112  0.4412  0.8046  11.00000  0.05    0.17
Q22   1   0.0000  0.0000  0.5708  10.08333  0.05    0.16
Q23   1   0.3407  0.5601  0.8264  11.00000  0.05    0.15
Q24   1   0.3873  0.5206  0.8494  11.00000  0.05    0.15
Q25   1   0.3361  0.4249  0.7491  11.00000  0.05    0.15
Q26   1   0.4330  0.4204  0.9312  11.00000  0.05    0.15
Q27   1   0.3868  0.5396  1.0000  10.50000  0.05    0.14
Q28   1   0.0753  0.1505  1.0000  10.25000  0.05    0.13
Q29   1   0.3291  0.5538  0.7437  11.00000  0.05    0.13
Q30   1   0.3468  0.4806  0.8664  11.00000  0.05    0.13
Q31   1   0.4136  0.5864  0.8872  10.50000  0.05    0.13
Q32   1   0.0000  0.0000  0.9063  10.08333  0.05    0.12
Q33   1   0.3223  0.5053  0.8010  11.00000  0.05    0.12
Q34   1   0.2890  0.4596  0.5000  10.50000  0.05    0.12
Q35   1   0.3917  0.6083  1.0000  10.25000  0.05    0.12
Q36   1   0.0000  0.0000  0.7092  10.08333  0.05    0.11
Q37   1   0.3401  0.3401  1.0000  10.25000  0.05    0.11
Q38   1   0.3309  0.4875  0.5985  11.00000  0.05    0.11
Q39   1   0.3624  0.4140  0.8151  11.00000  0.05    0.11
Q40   1   0.3555  0.5601  1.0000  10.50000  0.05    0.11
Q41   1   0.3375  0.4774  0.5000  10.50000  0.05    0.11
Q42   1   0.3007  0.4554  0.5000  10.50000  0.05    0.11
Q43   1   0.0000  0.0000  0.5000  10.04167  0.05    0.10
Q44   1   0.3486  0.5099  0.7208  11.00000  0.05    0.10
Q45   1   0.3206  0.5279  0.7324  11.00000  0.05    0.10
Q46   1   0.4305  0.5500  0.8769  11.00000  0.05    0.10
Q47   1   0.1267  0.1267  0.8596  10.50000  0.05    0.10
Q48   1   0.0000  0.0000  0.8006  10.08333  0.05    0.09
Q49   1   0.2592  0.5184  0.6646  10.50000  0.05    0.09
Q50   1   0.3613  0.5881  0.9451  11.00000  0.05    0.09
Q51   1   0.1000  0.0500  1.0000  10.25000  0.05    0.09
Q52   1   0.3870  0.5865  0.9775  11.00000  0.05    0.09
Q53   1   0.3286  0.3583  0.8989  11.00000  0.05    0.09
Q54   1   0.3962  0.6038  0.9649  10.50000  0.05    0.09
Q55   1   0.3645  0.4850  0.9033  11.00000  0.05    0.09
Q56   1   0.3109  0.3826  0.9024  11.00000  0.05    0.09
Q57   1   0.4216  0.5784  0.6173  10.50000  0.05    0.08
Q58   1   0.3775  0.4489  1.0000  10.50000  0.05    0.08
Q59   1   0.3139  0.4314  0.6735  11.00000  0.05    0.08
Q60   1   0.4258  0.5742  0.6576  10.50000  0.05    0.08
