TITL CrystalPilot n0015 in P 21 21 21
REM CrystalPilot node n0015 tool=run_shelxl
REM R1 = 0.0492 wR2 = 0.2123 GooF = 1.724
CELL 0.71073 5.78803 5.96863 12.29941 90.0000 90.0000 90.0000
ZERR 4 0.00000 0.00000 0.00000 0.0000 0.0000 0.0000
LATT -1
SYMM X+1/2,-Y+1/2,-Z
SYMM -X,Y+1/2,-Z+1/2
SYMM -X+1/2,-Y,Z+1/2
SFAC C H N O
UNIT 12.0 28.0 4.0 8.0

SADI 0.020 O2 C1 O2B C1
SIMU 0.040 0.080 O2 O2B

WGHT 0.100000 0.000000
FVAR 1.36204 0.48846
O1    4   0.260927   1.054203   0.684136    11.00000     0.00692     0.02852 =
      0.01930    -0.00345    -0.00130    -0.00066
PART 1
O2    4   0.124973   0.760490   0.586665    21.00000     0.00361
PART 0
N1    3  -0.316269   0.853303   0.637657    11.00000     0.00765     0.01504 =
      0.01414    -0.00083     0.00020     0.00031
AFIX 137
H1A   2  -0.461026   0.909717   0.646823    11.00000    -1.50000
H1B   2  -0.294778   0.735971   0.683807    11.00000    -1.50000
H1C   2  -0.299041   0.805696   0.567838    11.00000    -1.50000
AFIX 0
C2    1  -0.144862   1.028727   0.661100    11.00000     0.00702     0.01765 =
      0.01182     0.00035    -0.00077     0.00123
AFIX 13
H2    2  -0.158984   1.072191   0.739340    11.00000    -1.20000
AFIX 0
C1    1   0.100366   0.943652   0.640966    11.00000     0.01092     0.01129 =
      0.00889     0.00130     0.00001     0.00022
C3    1  -0.196683   1.235169   0.590753    11.00000     0.01241     0.01546 =
      0.02478     0.00344    -0.00036     0.00053
AFIX 137
H3A   2  -0.083777   1.353046   0.606671    11.00000    -1.50000
H3B   2  -0.352517   1.290012   0.606951    11.00000    -1.50000
H3C   2  -0.186834   1.194232   0.513730    11.00000    -1.50000
AFIX 0
PART 2
O2B   4   0.126868   0.792829   0.578545   -21.00000     0.02854
PART 0
HKLF 4
END
