TITL CrystalPilot n0004 in P 21 21 21
REM CrystalPilot node n0004 tool=set_adp
CELL 0.71073 5.78803 5.96863 12.29941 90.0000 90.0000 90.0000
ZERR 4 0.00000 0.00000 0.00000 0.0000 0.0000 0.0000
LATT -1
SYMM X+1/2,-Y+1/2,-Z
SYMM -X,Y+1/2,-Z+1/2
SYMM -X+1/2,-Y,Z+1/2
SFAC C N O
UNIT 12.0 4.0 8.0

WGHT 0.100000 0.000000
FVAR 1.00000
O1    3   0.260109   1.055151   0.684421    11.00000     0.01890     0.01890 =
      0.01890    -0.00000    -0.00000    -0.00000
O2    3   0.125542   0.772717   0.583357    11.00000     0.01934     0.01934 =
      0.01934    -0.00000    -0.00000    -0.00000
N1    2  -0.316959   0.852593   0.638089    11.00000     0.00659     0.00659 =
      0.00659    -0.00000    -0.00000    -0.00000
C2    1  -0.144708   1.029457   0.660832    11.00000     0.01442     0.01442 =
      0.01442    -0.00000    -0.00000    -0.00000
C1    1   0.100503   0.944343   0.640963    11.00000     0.01163     0.01163 =
      0.01163    -0.00000    -0.00000    -0.00000
C3    1  -0.196884   1.233998   0.590543    11.00000     0.01814     0.01814 =
      0.01814    -0.00000    -0.00000    -0.00000
HKLF 4
END
