TITL CrystalPilot n0014 in P 21 21 21
REM CrystalPilot node n0014 tool=run_shelxl
REM R1 = 0.0485 wR2 = 0.2133 GooF = 1.738
CELL 0.71073 5.78803 5.96863 12.29941 90.0000 90.0000 90.0000
ZERR 4 0.00000 0.00000 0.00000 0.0000 0.0000 0.0000
LATT -1
SYMM X+1/2,-Y+1/2,-Z
SYMM -X,Y+1/2,-Z+1/2
SYMM -X+1/2,-Y,Z+1/2
SFAC C H N O
UNIT 12.0 28.0 4.0 8.0

SADI 0.020 O2 C1 O2B C1
SIMU 0.040 0.080 O2 O2B

WGHT 0.100000 0.000000
FVAR 1.37386 0.70221
O1    4   0.260809   1.054178   0.684147    11.00000     0.00734     0.02869 =
      0.01975    -0.00342    -0.00163    -0.00071
PART 1
O2    4   0.125098   0.767680   0.585224    21.00000     0.00699
PART 0
N1    3  -0.316284   0.853311   0.637621    11.00000     0.00793     0.01580 =
      0.01453    -0.00089     0.00021     0.00030
AFIX 137
H1A   2  -0.461089   0.909917   0.646334    11.00000    -1.50000
H1B   2  -0.295376   0.736372   0.684065    11.00000    -1.50000
H1C   2  -0.298366   0.805073   0.567943    11.00000    -1.50000
AFIX 0
C2    1  -0.144943   1.028846   0.661101    11.00000     0.00746     0.01820 =
      0.01225     0.00041    -0.00091     0.00130
AFIX 13
H2    2  -0.159085   1.072300   0.739341    11.00000    -1.20000
AFIX 0
C1    1   0.100311   0.943768   0.640944    11.00000     0.01123     0.01218 =
      0.00943     0.00110     0.00005     0.00024
C3    1  -0.196560   1.235193   0.590767    11.00000     0.01296     0.01619 =
      0.02516     0.00343    -0.00034     0.00060
AFIX 137
H3A   2  -0.084785   1.353688   0.607359    11.00000    -1.50000
H3B   2  -0.353097   1.288998   0.606272    11.00000    -1.50000
H3C   2  -0.184766   1.194684   0.513752    11.00000    -1.50000
AFIX 0
PART 2
O2B   4   0.128659   0.802117   0.575046   -21.00000     0.04624
PART 0
HKLF 4
END
