TITL CrystalPilot n0012 in P 21 21 21
REM CrystalPilot node n0012 tool=model_disorder
CELL 0.71073 5.78803 5.96863 12.29941 90.0000 90.0000 90.0000
ZERR 4 0.00000 0.00000 0.00000 0.0000 0.0000 0.0000
LATT -1
SYMM X+1/2,-Y+1/2,-Z
SYMM -X,Y+1/2,-Z+1/2
SYMM -X+1/2,-Y,Z+1/2
SFAC C H N O
UNIT 12.0 28.0 4.0 8.0

WGHT 0.100000 0.000000
FVAR 1.35511 0.95000
O1    4   0.261019   1.054443   0.684170    11.00000     0.00688     0.02861 =
      0.01891    -0.00320    -0.00106    -0.00044
PART 1
O2    4   0.125682   0.773295   0.583459    21.00000     0.01843
PART 0
N1    3  -0.316206   0.853349   0.637763    11.00000     0.00780     0.01409 =
      0.01382    -0.00105     0.00006     0.00027
AFIX 137
H1A   2  -0.460980   0.909582   0.647130    11.00000    -1.50000
H1B   2  -0.294341   0.735919   0.683815    11.00000    -1.50000
H1C   2  -0.299286   0.805944   0.567895    11.00000    -1.50000
AFIX 0
C2    1  -0.144961   1.028814   0.661107    11.00000     0.00659     0.01836 =
      0.01129    -0.00010    -0.00050     0.00127
AFIX 13
H2    2  -0.158983   1.072348   0.739341    11.00000    -1.20000
AFIX 0
C1    1   0.100542   0.943401   0.640898    11.00000     0.01034     0.01152 =
      0.00868     0.00181    -0.00007     0.00042
C3    1  -0.196797   1.235098   0.590747    11.00000     0.01156     0.01468 =
      0.02501     0.00312     0.00010     0.00088
AFIX 137
H3A   2  -0.082738   1.352317   0.605973    11.00000    -1.50000
H3B   2  -0.351894   1.291063   0.607595    11.00000    -1.50000
H3C   2  -0.188862   1.193651   0.513739    11.00000    -1.50000
AFIX 0
PART 2
O2B   4   0.291400   0.583700   0.602400   -21.00000     0.01843
PART 0
HKLF 4
END
