TITL CrystalPilot n0011 in P 21 21 21
REM CrystalPilot node n0011 tool=model_disorder
REM R1 = 0.0548 wR2 = 0.2224 GooF = 1.81
CELL 0.71073 5.78803 5.96863 12.29941 90.0000 90.0000 90.0000
ZERR 4 0.00000 0.00000 0.00000 0.0000 0.0000 0.0000
LATT -1
SYMM X+1/2,-Y+1/2,-Z
SYMM -X,Y+1/2,-Z+1/2
SYMM -X+1/2,-Y,Z+1/2
SFAC C H N O
UNIT 12.0 28.0 4.0 8.0

SIMU 0.040 0.080 O1

WGHT 0.100000 0.000000
FVAR 1.34994
O1    4   0.260534   1.052911   0.684220    11.00000     0.01784
O2    4   0.125727   0.773474   0.583394    11.00000     0.01046     0.02668 =
      0.01626    -0.00378     0.00150     0.00165
N1    3  -0.315784   0.853382   0.637620    11.00000     0.00885     0.01376 =
      0.01324    -0.00182     0.00061     0.00071
AFIX 137
H1A   2  -0.460575   0.908721   0.648116    11.00000    -1.50000
H1B   2  -0.292269   0.734829   0.682806    11.00000    -1.50000
H1C   2  -0.300348   0.807924   0.567372    11.00000    -1.50000
AFIX 0
C2    1  -0.144697   1.029048   0.661163    11.00000     0.00780     0.01937 =
      0.01080    -0.00063    -0.00038     0.00109
AFIX 13
H2    2  -0.158759   1.072498   0.739407    11.00000    -1.20000
AFIX 0
C1    1   0.101017   0.943458   0.640787    11.00000     0.00958     0.01231 =
      0.00814     0.00177    -0.00090     0.00085
C3    1  -0.196935   1.234684   0.590850    11.00000     0.01106     0.01378 =
      0.02509     0.00218    -0.00018     0.00085
AFIX 137
H3A   2  -0.085930   1.353780   0.607574    11.00000    -1.50000
H3B   2  -0.353867   1.287673   0.606127    11.00000    -1.50000
H3C   2  -0.184430   1.194179   0.513859    11.00000    -1.50000
AFIX 0
HKLF 4
END
