TITL CrystalPilot n0055 in P 6/m m m
REM CrystalPilot node n0055 tool=run_shelxl
REM R1 = 0.0849 wR2 = 0.2526 GooF = 0.912
CELL 0.68883 39.19000 39.19000 16.61000 90.0000 90.0000 120.0000
ZERR 3 0.00000 0.00000 0.00000 0.0000 0.0000 0.0000
LATT 1
SYMM X-Y,X,Z
SYMM Y,-X+Y,Z
SYMM -Y,X-Y,Z
SYMM -X+Y,-X,Z
SYMM X-Y,-Y,-Z
SYMM -X,-X+Y,-Z
SYMM -X,-Y,Z
SYMM Y,X,-Z
SYMM -Y,-X,-Z
SYMM -X+Y,Y,-Z
SYMM X,X-Y,-Z
SFAC C H O Zr
REM DISP lambda 0.68883 A is not a SHELXL built-in line (Cu/Mo/Ag K-alpha):
REM DISP f'/f'' from cctbx (sasaki: C O Zr; henke: H), mu = NIST attenuation
REM DISP in barn/atom
DISP $C 0.002 0.002 10.99
DISP $H 0.000 0.000 0.62
DISP $O 0.007 0.006 30.28
DISP $Zr -9.041 2.772 14341.91
UNIT 264.0 132.0 96.0 18.0

EQIV $1 X, Y, -Z+1
EQIV $2 -X+1, -Y+1, Z
EQIV $3 -X+1, -Y+1, -Z+1
FREE ZR1 ZR2
FREE ZR1 ZR2_$1
FREE ZR1 ZR2_$2
FREE ZR1 ZR2_$3
FREE ZR2 ZR2_$1
FREE ZR2 ZR2_$2

SHEL 999 1.000

WGHT 0.144400 0.000000
FVAR 0.05121
ZR1   4   0.463830   0.536170   0.500000    10.25000     0.08741     0.08741 =
      0.06894     0.00000     0.00000     0.05596
ZR2   4   0.544998   0.544998   0.393677    10.50000     0.09119     0.09119 =
      0.08208     0.01233     0.01233     0.05712
O1    3   0.482267   0.587240   0.582177    11.00000     0.10079     0.09652 =
      0.09770     0.00087    -0.00022     0.06690
O2    3   0.534173   0.593110   0.649519    11.00000     0.10641     0.11896 =
      0.12844    -0.03937    -0.03322     0.07109
O3    3   0.527374   0.563776   0.500000    10.50000     0.09943     0.19127 =
      0.09559     0.00000     0.00000     0.08851
O4    3   0.536484   0.536484   0.260071    10.50000     0.19653     0.19653 =
      0.08208     0.03868     0.03868     0.15379
O5    3   0.600080   0.600080   0.409779    10.50000     0.10926     0.10926 =
      0.24659     0.02714     0.02714     0.05772
O6    3   0.518129   0.481871   0.393009    10.50000     0.12431     0.12431 =
      0.12761     0.01773    -0.01773     0.07785
C1    1   0.509215   0.602806   0.634644    11.00000     0.10390     0.10741 =
      0.08301    -0.00210    -0.01856     0.06404
C2    1   0.505177   0.690156   0.780632    11.00000     0.22042     0.11631 =
      0.07044     0.00012    -0.02232     0.09333
C3    1   0.477794   0.641034   0.675753    11.00000     0.15220     0.11801 =
      0.12250    -0.04858    -0.02218     0.09238
AFIX 43
H3    2   0.458368   0.627760   0.637168    11.00000    -1.20000
AFIX 0
C4    1   0.507971   0.632754   0.685919    11.00000     0.16575     0.10765 =
      0.09745    -0.03156    -0.02631     0.09326
C5    1   0.477059   0.669731   0.724580    11.00000     0.18024     0.14398 =
      0.11599    -0.00483     0.00363     0.11228
AFIX 43
H5    2   0.456553   0.675000   0.718396    11.00000    -1.20000
AFIX 0
C6    1   0.505300   0.722151   0.830803    11.00000     0.23172     0.09787 =
      0.09037    -0.02365    -0.01630     0.11078
C7    1   0.505234   0.752617   0.792571    10.50000     0.26186     0.11786 =
      0.09419    -0.01602    -0.03203     0.13093
AFIX 43
H7    2   0.505136   0.752568   0.736581    10.50000    -1.20000
AFIX 0
C8    1   0.537918   0.652369   0.739777    11.00000     0.22794     0.10838 =
      0.11753    -0.06327    -0.05785     0.10736
AFIX 43
H8    2   0.558148   0.646570   0.743793    11.00000    -1.20000
AFIX 0
C9    1   0.504646   0.722129   0.913384    11.00000     0.25423     0.10858 =
      0.08475     0.00261    -0.00466     0.11223
C10   1   0.505099   0.752549   0.956079    10.50000     0.27910     0.10920 =
      0.08329     0.00074     0.00148     0.13955
C11   1   0.537732   0.680785   0.787929    11.00000     0.24696     0.12266 =
      0.10878    -0.00681    -0.05361     0.10849
AFIX 43
H11   2   0.557843   0.694225   0.825112    11.00000    -1.20000
AFIX 0
C12   1   0.504503   0.690137   0.959607    11.00000     0.31398     0.15666 =
      0.08483    -0.00747    -0.00032     0.15990
AFIX 43
H12   2   0.504411   0.669382   0.932269    11.00000    -1.20000
AFIX 0
HKLF 4
END
