TITL CrystalPilot cross-check in P 6/m m m
    job.res
    created by SHELXL-2019/3 at 19:50:21 on 21-Sep-2026
CELL 0.68883 39.19000 39.19000 16.61000 90.0000 90.0000 120.0000
ZERR 24 0.00000 0.00000 0.00000 0.0000 0.0000 0.0000
LATT 1
SYMM X-Y,X,Z
SYMM Y,-X+Y,Z
SYMM -Y,X-Y,Z
SYMM -X+Y,-X,Z
SYMM X-Y,-Y,-Z
SYMM -X,-X+Y,-Z
SYMM -X,-Y,Z
SYMM Y,X,-Z
SYMM -Y,-X,-Z
SYMM -X+Y,Y,-Z
SYMM X,X-Y,-Z
SFAC C H O Zr
REM DISP lambda 0.68883 A is not a SHELXL built-in line (Cu/Mo/Ag K-alpha):
REM DISP f'/f'' from cctbx (sasaki: C O Zr; henke: H), mu = NIST attenuation
REM DISP in barn/atom
DISP $C 0.002 0.002 10.99
DISP $H 0.000 0.000 0.62
DISP $O 0.007 0.006 30.28
DISP $Zr -9.041 2.772 14341.91
UNIT 264.0 132.0 96.0 18.0

L.S. 8
BOND $H
CONF
ACTA
FMAP 2
PLAN 20
ABIN

SHEL 999 1.000

WGHT    0.100000
FVAR       0.05218
ZR1   4    0.463816    0.536184    0.500000    10.25000    0.08998    0.08998 =
         0.07061    0.00000    0.00000    0.05733
ZR2   4    0.545074    0.545074    0.393634    10.50000    0.09348    0.09348 =
         0.08304    0.01249    0.01249    0.05829
O1    3    0.482331    0.587258    0.582056    11.00000    0.10369    0.09628 =
         0.10046    0.00246    0.00078    0.06804
O2    3    0.534308    0.593142    0.649762    11.00000    0.10484    0.12152 =
         0.12713   -0.04274   -0.03714    0.06906
O3    3    0.527613    0.564186    0.500000    10.50000    0.10168    0.18375 =
         0.10117    0.00000    0.00000    0.08674
O4    3    0.535782    0.535782    0.259749    10.50000    0.19963    0.19963 =
         0.07917    0.03730    0.03730    0.15698
O5    3    0.600308    0.600308    0.410818    10.50000    0.11359    0.11359 =
         0.25353    0.03152    0.03152    0.05934
O6    3    0.518189    0.481811    0.392434    10.50000    0.13537    0.13537 =
         0.12973    0.01315   -0.01315    0.09013
C1    1    0.509513    0.602952    0.634383    11.00000    0.10187    0.11632 =
         0.08448   -0.00750   -0.02509    0.06265
C2    1    0.504569    0.689602    0.780056    11.00000    0.21888    0.12221 =
         0.06891    0.00319   -0.01501    0.10143
C3    1    0.477466    0.640769    0.676078    11.00000    0.15831    0.12043 =
         0.12562   -0.05378   -0.02409    0.09696
AFIX  43
H3    2    0.457883    0.627197    0.637944    11.00000   -1.20000
AFIX   0
C4    1    0.507743    0.632872    0.686139    11.00000    0.17804    0.10899 =
         0.09689   -0.03112   -0.01990    0.09993
C5    1    0.476853    0.669329    0.723961    11.00000    0.18680    0.14627 =
         0.10659   -0.00774   -0.00074    0.11109
AFIX  43
H5    2    0.456490    0.674764    0.717173    11.00000   -1.20000
AFIX   0
C6    1    0.505052    0.721955    0.830513    11.00000    0.23078    0.10073 =
         0.08627   -0.02338   -0.01519    0.10665
C7    1    0.504662    0.752331    0.792516    10.50000    0.25716    0.12219 =
         0.09838   -0.02113   -0.04227    0.12858
AFIX  43
H7    2    0.504087    0.752044    0.736538    10.50000   -1.20000
AFIX   0
C8    1    0.538065    0.652672    0.739999    11.00000    0.23828    0.10795 =
         0.11400   -0.06533   -0.05816    0.10882
AFIX  43
H8    2    0.558488    0.647130    0.743415    11.00000   -1.20000
AFIX   0
C9    1    0.504621    0.722221    0.912808    11.00000    0.25627    0.10852 =
         0.09196    0.00941    0.00105    0.11622
C10   1    0.504922    0.752461    0.955680    10.50000    0.29440    0.10935 =
         0.08910   -0.00034   -0.00067    0.14720
C11   1    0.537607    0.680530    0.788193    11.00000    0.25120    0.12143 =
         0.10800   -0.01286   -0.06490    0.10679
AFIX  43
H11   2    0.557493    0.693882    0.825864    11.00000   -1.20000
AFIX   0
C12   1    0.504415    0.690460    0.959579    11.00000    0.31667    0.15093 =
         0.08886   -0.01383   -0.00288    0.15090
AFIX  43
H12   2    0.504281    0.669632    0.932458    11.00000   -1.20000
AFIX   0
HKLF 4




REM  CrystalPilot cross-check in P 6/m m m
REM wR2 = 0.2365, GooF = S = 1.086, Restrained GooF = 1.086 for all data
REM R1 = 0.0829 for 2063 Fo > 4sig(Fo) and 0.1294 for all 4395 data
REM 155 parameters refined using 0 restraints

END  
     
WGHT      0.1369      0.0000 

REM Highest difference peak  0.526,  deepest hole -0.938,  1-sigma level  0.066
Q1    1   0.5000  0.5000  0.2284  10.25000  0.05    0.53
Q2    1   0.6138  0.6138  0.5000  10.25000  0.05    0.48
Q3    1   0.5470  0.5470  0.2109  10.50000  0.05    0.42
Q4    1   0.4505  0.5495  0.4612  10.50000  0.05    0.40
Q5    1   0.5480  0.5360  0.2767  11.00000  0.05    0.38
Q6    1   0.5679  0.5530  0.3536  11.00000  0.05    0.29
Q7    1   0.5620  0.5620  0.3541  10.50000  0.05    0.27
Q8    1   1.0000  1.0000  0.4075  10.08333  0.05    0.26
Q9    1   0.4376  0.6244  0.6517  11.00000  0.05    0.24
Q10   1   0.4568  0.6083  0.7124  11.00000  0.05    0.22
Q11   1   0.4645  0.6045  0.5969  11.00000  0.05    0.22
Q12   1   0.5381  0.6249  0.6065  11.00000  0.05    0.22
Q13   1   0.6320  0.6108  0.3998  11.00000  0.05    0.19
Q14   1   0.5660  0.6612  0.6823  11.00000  0.05    0.18
Q15   1   1.0000  1.0000  0.9202  10.08333  0.05    0.18
Q16   1   0.5320  0.6211  0.6957  11.00000  0.05    0.17
Q17   1   0.4542  0.6228  0.7386  11.00000  0.05    0.16
Q18   1   0.4388  0.6397  0.6766  11.00000  0.05    0.16
Q19   1   0.5482  0.6120  0.6791  11.00000  0.05    0.16
Q20   1   0.5000  0.5000  0.0000  10.12500  0.05    0.15
