TITL CrystalPilot cross-check in P 6/m m m
    job.res
    created by SHELXL-2019/3 at 20:00:44 on 21-Sep-2026
CELL 0.68883 39.19000 39.19000 16.61000 90.0000 90.0000 120.0000
ZERR 3 0.00000 0.00000 0.00000 0.0000 0.0000 0.0000
LATT 1
SYMM X-Y,X,Z
SYMM Y,-X+Y,Z
SYMM -Y,X-Y,Z
SYMM -X+Y,-X,Z
SYMM X-Y,-Y,-Z
SYMM -X,-X+Y,-Z
SYMM -X,-Y,Z
SYMM Y,X,-Z
SYMM -Y,-X,-Z
SYMM -X+Y,Y,-Z
SYMM X,X-Y,-Z
SFAC C H O Zr
REM DISP lambda 0.68883 A is not a SHELXL built-in line (Cu/Mo/Ag K-alpha):
REM DISP f'/f'' from cctbx (sasaki: C O Zr; henke: H), mu = NIST attenuation
REM DISP in barn/atom
DISP $C 0.002 0.002 10.99
DISP $H 0.000 0.000 0.62
DISP $O 0.007 0.006 30.28
DISP $Zr -9.041 2.772 14341.91
UNIT 264.0 132.0 96.0 18.0

L.S. 12
BOND $H
CONF
ACTA
FMAP 2
PLAN 20
ABIN
EQIV $1 X, Y, -Z+1
EQIV $2 -X+1, -Y+1, Z
EQIV $3 -X+1, -Y+1, -Z+1
FREE ZR1 ZR2
FREE ZR1 ZR2_$1
FREE ZR1 ZR2_$2
FREE ZR1 ZR2_$3
FREE ZR2 ZR2_$1
FREE ZR2 ZR2_$2

SHEL 999 1.000

SADI 0.020 O4 ZR2 O4B ZR2
SIMU 0.040 0.080 O4 O4B
SADI 0.020 O5 ZR2 O5B ZR2
SIMU 0.040 0.080 O5 O5B

WGHT    0.144400
FVAR       0.05111   1.04251   1.06887
ZR1   4    0.463822    0.536178    0.500000    10.25000    0.08628    0.08628 =
         0.06978    0.00000    0.00000    0.05481
ZR2   4    0.545017    0.545017    0.393710    10.50000    0.09068    0.09068 =
         0.08179    0.01213    0.01213    0.05663
O1    3    0.482269    0.587228    0.582072    11.00000    0.10300    0.10005 =
         0.09736   -0.00017   -0.00063    0.07140
O2    3    0.534192    0.593085    0.649775    11.00000    0.10731    0.11973 =
         0.12745   -0.03965   -0.03102    0.07111
O3    3    0.527405    0.563852    0.500000    10.50000    0.10121    0.18716 =
         0.09574    0.00000    0.00000    0.08896
PART 1
O4    3    0.536831    0.536831    0.259930    20.50000    0.13123
O5    3    0.600036    0.600036    0.409713    30.50000    0.16203
PART 0
O6    3    0.518093    0.481907    0.393362    10.50000    0.12542    0.12542 =
         0.12442    0.01788   -0.01788    0.07855
C1    1    0.509149    0.602772    0.634594    11.00000    0.10650    0.10814 =
         0.08213   -0.00133   -0.01668    0.06762
C2    1    0.505382    0.690295    0.780637    11.00000    0.21657    0.10865 =
         0.07229    0.00005   -0.02164    0.08758
C3    1    0.477706    0.640941    0.676122    11.00000    0.15774    0.11922 =
         0.12097   -0.05154   -0.02772    0.09513
AFIX  43
H3    2    0.458211    0.627603    0.637697    11.00000   -1.20000
AFIX   0
C4    1    0.507934    0.632684    0.685905    11.00000    0.16378    0.10510 =
         0.09446   -0.02785   -0.02571    0.09130
C5    1    0.476935    0.669623    0.724868    11.00000    0.17880    0.14270 =
         0.11558   -0.00518    0.00573    0.10982
AFIX  43
H5    2    0.456321    0.674753    0.719020    11.00000   -1.20000
AFIX   0
C6    1    0.505209    0.722052    0.830819    11.00000    0.22759    0.09655 =
         0.09184   -0.02261   -0.01513    0.10678
C7    1    0.505029    0.752515    0.792131    10.50000    0.26338    0.11604 =
         0.09103   -0.01549   -0.03098    0.13169
AFIX  43
H7    2    0.504767    0.752384    0.736143    10.50000   -1.20000
AFIX   0
C8    1    0.538107    0.652424    0.739816    11.00000    0.23209    0.10747 =
         0.11746   -0.06226   -0.05975    0.10792
AFIX  43
H8    2    0.558519    0.646883    0.743655    11.00000   -1.20000
AFIX   0
C9    1    0.504783    0.722305    0.913104    11.00000    0.24931    0.10860 =
         0.08678    0.00373   -0.00320    0.11063
C10   1    0.505075    0.752537    0.956053    10.50000    0.27209    0.10753 =
         0.08374    0.00035    0.00070    0.13604
C11   1    0.537406    0.680663    0.788122    11.00000    0.25980    0.12277 =
         0.10853   -0.00964   -0.05480    0.11289
AFIX  43
H11   2    0.557258    0.693871    0.825931    11.00000   -1.20000
AFIX   0
C12   1    0.504227    0.689973    0.959771    11.00000    0.30678    0.15721 =
         0.08375   -0.00627    0.00129    0.15533
AFIX  43
H12   2    0.503869    0.669074    0.932490    11.00000   -1.20000
AFIX   0
PART 2
O4B   3    0.500000    0.500000    0.310110   -20.50000    0.13121
O5B   3    0.577323    0.577323    0.500000   -30.50000    0.16205
PART 0
HKLF 4




REM  CrystalPilot cross-check in P 6/m m m
REM wR2 = 0.2641, GooF = S = 0.955, Restrained GooF = 0.955 for all data
REM R1 = 0.0893 for 2063 Fo > 4sig(Fo) and 0.1372 for all 4395 data
REM 155 parameters refined using 4 restraints

END  
     
WGHT      0.1542      0.0000 

REM Highest difference peak  0.806,  deepest hole -0.853,  1-sigma level  0.071
Q1    1   0.5000  0.5000  0.2397  10.25000  0.05    0.81
Q2    1   0.6125  0.6125  0.5000  10.25000  0.05    0.67
Q3    1   0.5531  0.5531  0.2717  10.50000  0.05    0.63
Q4    1   0.4515  0.5485  0.4633  10.50000  0.05    0.44
Q5    1   0.5656  0.5539  0.3574  11.00000  0.05    0.34
Q6    1   0.5607  0.5607  0.3572  10.50000  0.05    0.33
Q7    1   0.5972  0.5972  0.3608  10.50000  0.05    0.26
Q8    1   0.4586  0.6091  0.7025  11.00000  0.05    0.25
Q9    1   0.5556  0.5556  0.1967  10.50000  0.05    0.25
Q10   1   0.4410  0.6237  0.6501  11.00000  0.05    0.24
Q11   1   1.0000  1.0000  0.7075  10.08333  0.05    0.23
Q12   1   0.4638  0.6038  0.6013  11.00000  0.05    0.21
Q13   1   0.5245  0.5547  0.2179  11.00000  0.05    0.21
Q14   1   0.5394  0.6264  0.6071  11.00000  0.05    0.20
Q15   1   0.5604  0.6456  0.7110  11.00000  0.05    0.19
Q16   1   0.5270  0.6259  0.6901  11.00000  0.05    0.18
Q17   1   0.4786  0.6126  0.6630  11.00000  0.05    0.17
Q18   1   0.5574  0.5574  0.4206  10.50000  0.05    0.17
Q19   1   0.5375  0.6297  0.8042  11.00000  0.05    0.17
Q20   1   0.4385  0.6467  0.6798  11.00000  0.05    0.17
