TITL m4 recompute of delivered CIF model, atoms fixed, scale refined
    m4.res
    created by SHELXL-2019/3 at 09:19:47 on 22-Sep-2026
CELL 0.71073 5.7970 5.9711 12.3018 90.000 90.000 90.000
ZERR 4 0.001 0.001 0.001 0.01 0.01 0.01
LATT -1
SYMM -X+1/2,-Y,Z+1/2
SYMM X+1/2,-Y+1/2,-Z
SYMM -X,Y+1/2,-Z+1/2
SFAC O N C H
UNIT 8 4 12 28
MERG 4
L.S. 4
LIST 4
FMAP 2
PLAN 5
WGHT    0.030000
FVAR       1.24705
O1    1   11.125401   10.272778   10.416212    11.00000   10.01609   10.02308 =
        10.01995   10.00522    9.99814   10.00199
O2    1   11.261210   10.555820   10.315734    11.00000   10.01193   10.02491 =
        10.02246   10.00433   10.00168    9.99964
N1    2   10.683942   10.350550   10.362460    11.00000   10.01047   10.01844 =
        10.01707   10.00131    9.99972   10.00023
C1    3   11.100440   10.443580   10.359080    11.00000   10.01390   10.01724 =
        10.01129    9.99740   10.00007   10.00098
C2    3   10.854920   10.530820   10.338990    11.00000   10.01170   10.01834 =
        10.01438   10.00252   10.00063   10.00025
C3    3   10.803680   10.734748   10.408810    11.00000   10.01607   10.02045 =
        10.02526    9.99801   10.00007   10.00107
H2    4   10.842887   10.576191   10.260943    11.00000   10.01777
H1N   4   10.699399   10.305164   10.432692    11.00000   10.02299
H2N   4   10.709381   10.232450   10.317266    11.00000   10.02299
H3N   4   10.538729   10.404050   10.351728    11.00000   10.02299
H1C   4   10.808082   10.692276   10.485725    11.00000   10.03089
H2C   4   10.650249   10.792832   10.390810    11.00000   10.03089
H3C   4   10.919662   10.850674   10.394912    11.00000   10.03089
HKLF 4




REM  m4 recompute of delivered CIF model, atoms fixed, scale refined
REM wR2 = 0.0747, GooF = S = 1.245, Restrained GooF = 1.245 for all data
REM R1 = 0.0326 for 574 Fo > 4sig(Fo) and 0.0378 for all 623 data
REM 1 parameters refined using 0 restraints

END  
     
WGHT      0.0347      0.0396 

REM Highest difference peak  0.148,  deepest hole -0.172,  1-sigma level  0.045
Q1    1   0.8469  0.5343  0.3004  11.00000  0.05    0.15
Q2    1   1.2947  0.8547  0.3613  11.00000  0.05    0.15
Q3    1   0.7792  0.5597  0.4960  11.00000  0.05    0.15
Q4    1   0.9650  0.4885  0.3459  11.00000  0.05    0.14
Q5    1   0.8393  0.6411  0.3592  11.00000  0.05    0.14
