TITL CrystalPilot n0005 in P 21 21 21
REM CrystalPilot node n0005 tool=run_shelxl
REM R1 = 0.0758 wR2 = 0.2727 GooF = 2.243
CELL 0.71073 5.78803 5.96863 12.29941 90.0000 90.0000 90.0000
ZERR 4 0.00000 0.00000 0.00000 0.0000 0.0000 0.0000
LATT -1
SYMM X+1/2,-Y+1/2,-Z
SYMM -X,Y+1/2,-Z+1/2
SYMM -X+1/2,-Y,Z+1/2
SFAC C N O
UNIT 12.0 4.0 8.0

WGHT 0.100000 0.000000
FVAR 1.33339
O1    3   0.260281   1.054459   0.683717    11.00000     0.00670     0.02691 =
      0.01849    -0.00318    -0.00136    -0.00002
O2    3   0.126957   0.773188   0.583590    11.00000     0.01012     0.02887 =
      0.01331    -0.00421     0.00249     0.00137
N1    2  -0.317589   0.853255   0.637965    11.00000     0.00839     0.01331 =
      0.01388    -0.00033    -0.00140     0.00006
C2    1  -0.144094   1.027728   0.661083    11.00000     0.00732     0.01684 =
      0.01299     0.00043    -0.00111     0.00314
C1    1   0.101942   0.943999   0.640729    11.00000     0.01010     0.00958 =
      0.00865     0.00225     0.00027    -0.00019
C3    1  -0.196090   1.235577   0.590174    11.00000     0.01164     0.01308 =
      0.02676     0.00383     0.00072     0.00138
HKLF 4
END
