TITL CrystalPilot cross-check in P 6/m m m
    job.res
    created by SHELXL-2019/3 at 19:42:11 on 21-Sep-2026
CELL 0.68883 39.19000 39.19000 16.61000 90.0000 90.0000 120.0000
ZERR 24 0.00000 0.00000 0.00000 0.0000 0.0000 0.0000
LATT 1
SYMM X-Y,X,Z
SYMM Y,-X+Y,Z
SYMM -Y,X-Y,Z
SYMM -X+Y,-X,Z
SYMM X-Y,-Y,-Z
SYMM -X,-X+Y,-Z
SYMM -X,-Y,Z
SYMM Y,X,-Z
SYMM -Y,-X,-Z
SYMM -X+Y,Y,-Z
SYMM X,X-Y,-Z
SFAC C O Zr
REM DISP lambda 0.68883 A is not a SHELXL built-in line (Cu/Mo/Ag K-alpha):
REM DISP f'/f'' from cctbx (sasaki: C O Zr), mu = NIST attenuation in
REM DISP barn/atom
DISP $C 0.002 0.002 10.99
DISP $O 0.007 0.006 30.28
DISP $Zr -9.041 2.772 14341.91
UNIT 556.0 124.0 18.0

L.S. 6
BOND $H
CONF
ACTA
FMAP 2
PLAN 20

SHEL 999 1.000

WGHT    0.100000
FVAR       0.05245
ZR01  3    0.463824    0.536176    0.500000    10.25000    0.08760    0.08760 =
         0.06921    0.00000    0.00000    0.05513
ZR02  3    0.544712    0.544712    0.393708    10.50000    0.09472    0.09472 =
         0.08531    0.01371    0.01371    0.06047
O003  2    0.481417    0.586494    0.581570    11.00000    0.11026    0.11127 =
         0.09558   -0.00170   -0.00278    0.07598
O004  2    0.534082    0.593001    0.649754    11.00000    0.11651    0.11994 =
         0.12841   -0.04254   -0.03145    0.07079
O005  2    0.527107    0.563012    0.500000    10.50000    0.12635    0.22920 =
         0.10815    0.00000    0.00000    0.12042
O006  2    0.538557    0.538557    0.262013    10.50000    0.20532    0.20532 =
         0.08796    0.02238    0.02238    0.15774
O007  2    0.601054    0.601054    0.412532    10.50000    0.09942    0.09942 =
         0.27746    0.00739    0.00739    0.04735
O008  2    0.517337    0.482663    0.393135    10.50000    0.11749    0.11749 =
         0.15766    0.02908   -0.02908    0.05940
C009  1    0.508162    0.601892    0.634344    11.00000    0.10413    0.11753 =
         0.10300    0.00432   -0.01369    0.07065
C00A  1    0.505499    0.690094    0.780408    11.00000    0.24310    0.11629 =
         0.08394    0.00911    0.00183    0.12288
O00B  1    0.477059    0.641231    0.672748    11.00000    0.16869    0.12117 =
         0.11762   -0.02452   -0.00853    0.10980
C00C  1    0.506687    0.632653    0.686141    11.00000    0.15592    0.09640 =
         0.10661   -0.03010   -0.02103    0.08391
O00D  1    0.475088    0.669382    0.721929    11.00000    0.21222    0.12922 =
         0.10359   -0.02055   -0.03004    0.10561
C00E  1    0.505086    0.721966    0.830997    11.00000    0.25005    0.11156 =
         0.09519   -0.02889   -0.01622    0.12500
O00F  1    0.504858    0.752429    0.787607    10.50000    0.22859    0.09582 =
         0.13164   -0.01468   -0.02936    0.11430
O00G  1    0.538115    0.652469    0.740777    11.00000    0.18751    0.11043 =
         0.10300   -0.04078   -0.03014    0.08585
C00H  1    0.505061    0.721222    0.914423    11.00000    0.24171    0.12216 =
         0.06830   -0.01320   -0.00162    0.10765
C00I  1    0.504269    0.752135    0.957887    10.50000    0.27422    0.11962 =
         0.07410   -0.00489   -0.00977    0.13711
O00J  1    0.538103    0.681903    0.791580    11.00000    0.24774    0.12931 =
         0.11986   -0.00277   -0.01786    0.13150
O00K  2    0.570242    0.429758    0.134201    10.50000    0.29605
O00L  1    0.504724    0.687553    0.958809    11.00000    0.29402    0.14604 =
         0.08913    0.02385    0.01545    0.14606
C00M  1    0.740115    0.535045    0.500000    10.50000    0.25981
C00N  1    0.594462    0.405538    0.093294    10.50000    0.21188
C00O  1    0.625558    0.625558    0.507934    10.50000    1.11426
C00P  1    0.756467    0.378234    0.500000    10.25000    0.53522
C00Q  1    0.799768    0.399884    0.500000    10.25000    0.46812
C00R  1    0.596880    0.674482    0.000000    10.50000    0.32812
C00S  1    0.706144    0.561329    0.500000    10.50000    0.40694
C00T  1    0.539589    0.460411    0.224405    10.50000    0.32343
C00U  1    0.665622    0.588029    0.500000    10.50000    0.43252
C00V  1    0.716256    0.432513    0.500000    10.25000    0.50757
C00X  1    0.724957    0.602599    0.500000    10.50000    1.37686
C00Y  1    0.578923    0.638354    0.068709    11.00000    0.86835
C00Z  1    0.489781    0.408046    0.084371    11.00000    0.70540
C010  1    0.742734    0.485468    0.500000    10.25000    0.65649
C011  1    0.934836    0.869673    0.500000    10.25000    2.00000
O012  2    0.642750    0.642750    0.236877    10.50000    0.62934
C013  1    0.531541    0.468459    0.166608    10.50000    0.86765
C014  1    0.932545    0.865090    0.612630    10.50000    1.66435
O015  2    0.666667    0.333333    0.168295    10.16667    0.93226
C016  1    1.000000    1.000000   -0.284648    10.08333    0.15106
C017  1    0.553684    0.446316   -0.218352    10.50000    2.00000
C018  1    1.000000    1.000000    0.106944    10.08333    2.00000
C019  1    0.729327    0.459614    0.500000    10.50000    1.23931
C01A  1    0.565199    0.434801    0.000000    10.25000    0.58715
C01B  1    0.929839    0.859679    0.718621    10.50000    1.78074
C01C  1    0.782404    0.391202    0.563603    10.50000    1.26332
C01D  1    0.750655    0.570030    0.595029    11.00000    0.69269
C01E  1    0.945535    0.498810    0.500000    10.50000    0.93111
HKLF 4




REM  CrystalPilot cross-check in P 6/m m m
REM wR2 = 0.3371, GooF = S = 1.595, Restrained GooF = 1.595 for all data
REM R1 = 0.1302 for 2063 Fo > 4sig(Fo) and 0.2187 for all 4395 data
REM 236 parameters refined using 0 restraints

END  
     
WGHT      0.2000      0.0000 

REM Highest difference peak  0.599,  deepest hole -1.867,  1-sigma level  0.107
Q1    1   1.0000  1.0000 -0.4000  10.08333  0.05    0.60
Q2    1   0.6146  0.6146  0.5000  10.25000  0.05    0.51
Q3    1   0.6116  0.6116  0.1864  10.50000  0.05    0.51
Q4    1   0.6209  0.3791  0.1105  10.50000  0.05    0.48
Q5    1   0.5000  0.5000  0.1488  10.25000  0.05    0.46
Q6    1   1.0000  1.0000  0.1710  10.08333  0.05    0.45
Q7    1   1.0000  1.0000 -0.5000  10.04167  0.05    0.44
Q8    1   0.6515  0.3485  0.0000  10.25000  0.05    0.43
Q9    1   1.0000  1.0000  0.0000  10.04167  0.05    0.43
Q10   1   0.6980  0.3959  0.1500  10.50000  0.05    0.42
Q11   1   0.5690  0.5690  0.3562  10.50000  0.05    0.42
Q12   1   0.6859  0.6161  0.6019  11.00000  0.05    0.42
Q13   1   0.6554  0.6554  0.5000  10.25000  0.05    0.40
Q14   1   0.6667  0.3333  0.2633  10.16667  0.05    0.38
Q15   1   0.6667  0.3333  0.0642  10.16667  0.05    0.37
Q16   1   0.6923  0.3077  0.0000  10.25000  0.05    0.37
Q17   1   0.6647  0.5699  0.5000  10.50000  0.05    0.36
Q18   1   0.4605  0.4226  0.1564  11.00000  0.05    0.36
Q19   1   0.6660  0.6410  0.3132  11.00000  0.05    0.35
Q20   1   0.5797  0.6546  0.0000  10.50000  0.05    0.34
