TITL job_a.res in P6/mmm
REM Old TITL CrystalPilot run_shelxt
REM SHELXT solution in P6/mmm: R1 0.352, Rweak 0.074, Alpha 0.143
REM <I/s>   0.000 for    0 systematic absences,  Orientation as input
REM Formula found by SHELXT:  C225 O128 Zr9

CELL  0.68883  39.1900  39.1900  16.6100   90.000   90.000  120.000
ZERR    6.000   0.0000   0.0000   0.0000    0.000    0.000    0.000
LATT  1
SYMM -Y, X-Y, Z
SYMM -X+Y, -X, Z
SYMM -X, -Y, Z
SYMM Y, -X+Y, Z
SYMM X-Y, X, Z
SYMM Y, X, -Z
SYMM X-Y, -Y, -Z
SYMM -X, -X+Y, -Z
SYMM -Y, -X, -Z
SYMM -X+Y, Y, -Z
SYMM X, X-Y, -Z
SFAC C O ZR
UNIT 528 192 36
L.S. 10
BOND
LIST 6
FMAP 2
PLAN 20
ZR01  3  0.46392  0.53608  0.50000 10.25000  0.08755  63.51
ZR02  3  0.54497  0.54496  0.39445 10.50000  0.09628  59.44
O003  2  0.48207  0.58764  0.58055 11.00000  0.07578  15.82
O004  2  0.53615  0.59448  0.65009 11.00000  0.09128  14.76
O005  2  0.52581  0.56479  0.50000 10.50000  0.09604  14.43
O006  2  0.54048  0.54047  0.26414 10.50000  0.09987  13.22
O007  2  0.60015  0.60015  0.41324 10.50000  0.12674  13.19
O008  2  0.51794  0.48206  0.38877 10.50000  0.10732  13.06
C009  1  0.50778  0.60345  0.63090 11.00000  0.07694  10.90
C00A  1  0.50670  0.68618  0.78245 11.00000  0.12247  10.52
O00B  2  0.47651  0.64008  0.67621 11.00000  0.13383  10.23
C00C  1  0.50820  0.63405  0.67879 11.00000  0.10930   9.86
O00D  2  0.47579  0.66474  0.72952 11.00000  0.17724   9.64
C00E  1  0.50803  0.72441  0.83397 11.00000  0.10921   9.26
O00F  2  0.50775  0.75387  0.79335 10.50000  0.15969   9.12
O00G  2  0.54189  0.65590  0.74042 11.00000  0.14133   9.04
C00H  1  0.50688  0.72432  0.91495 11.00000  0.09395   8.93
C00I  1  0.49979  0.74989  0.95125 10.50000  0.08996   8.75
O00J  2  0.53711  0.68182  0.79051 11.00000  0.16431   8.35
O00K  2  0.57379  0.42621  0.12902 10.50000  0.15477   7.90
O00L  2  0.50119  0.68657  0.96265 11.00000  0.13960   7.76
C00M  1  0.74808  0.54422  0.50000 10.50000  0.17009   6.18
C00N  1  0.59720  0.40280  0.08093 10.50000  0.18657   5.78
C00O  1  0.61772  0.61770  0.44996 10.50000  0.21779   5.32
C00P  1  0.73166  0.36583  0.50000 10.25000  0.16402   5.21
C00Q  1  0.79132  0.39566  0.50000 10.25000  0.18608   4.68
C00R  1  0.59286  0.66642  0.00000 10.50000  0.17344   4.58
C00S  1  0.70166  0.56683  0.50000 10.50000  0.20407   4.51
C00T  1  0.54131  0.45868  0.23841 10.50000  0.12417   4.46
C00U  1  0.66374  0.57541  0.50000 11.00000  0.28467   4.17
C00V  1  0.75945  0.51889  0.50000 10.25000  0.20295   4.00
C00W  1  1.00000  1.00000  0.97696 10.08333  0.13959   4.00
C00X  1  0.72211  0.52883  0.50000 10.50000  0.19553   3.80
C00Y  1  0.58311  0.64659  0.05962 11.00000  0.21359   3.68
C00Z  1  0.53095  0.44523  0.16780 11.00000  0.17299   3.61
C010  1  0.73437  0.46872  0.50000 10.25000  0.17365   3.53
C011  1  0.94463  0.88925  0.50000 10.25000  0.15333   3.49
O012  2  0.62527  0.62526  0.17821 10.50000  0.20949   3.49
C013  1  0.53343  0.46657  0.20617 10.50000  0.15630   3.44
C014  1  0.93670  0.87339  0.56409 10.50000  0.21493   3.38
O015  2  0.66667  0.33333  0.11828 10.16667  0.20155   3.37
C016  1  1.00000  1.00000  0.75870 10.08333  0.12696   3.21
C017  1  0.55878  0.44122  0.06062 10.50000  0.20807   3.19
C018  1  1.00000  1.00000  0.81454 10.08333  0.10013   3.19
C019  1  0.76838  0.39949  0.50000 10.50000  0.25180   3.16
C01A  1  0.55844  0.44156  0.00000 10.25000  0.15659   3.16
C01B  1  0.96343  0.92687  0.53573 10.50000  0.20198   3.15
C01C  1  0.74405  0.37202  0.58260 10.50000  0.20287   3.10
C01D  1  0.74620  0.54889  0.55816 11.00000  0.23174   3.07
C01E  1  0.73664  0.44630  0.46081 11.00000  0.16927   3.05
HKLF 4
END
