TITL job_b.res in P6mm
REM Old TITL CrystalPilot run_shelxt
REM SHELXT solution in P6mm: R1 0.297, Rweak 0.052, Alpha 0.126
REM <I/s>   0.000 for    0 systematic absences,  Orientation as input
REM Flack x =  0.474 ( 0.066 ) from  1037 Parsons' quotients
REM Formula found by SHELXT:  C493 O273 Zr18

CELL  0.68883  39.1900  39.1900  16.6100   90.000   90.000  120.000
ZERR    6.000   0.0000   0.0000   0.0000    0.000    0.000    0.000
LATT -1
SYMM -Y, X-Y, Z
SYMM -X+Y, -X, Z
SYMM -X, -Y, Z
SYMM Y, -X+Y, Z
SYMM X-Y, X, Z
SYMM -Y, -X, Z
SYMM -X+Y, Y, Z
SYMM X, X-Y, Z
SYMM Y, X, Z
SYMM X-Y, -Y, Z
SYMM -X, -X+Y, Z
SFAC C O ZR
UNIT 528 192 36
L.S. 10
BOND
LIST 6
FMAP 2
PLAN 20
ZR01  3  0.45448  1.00000  0.67100 10.50000  0.08113  67.29
ZR02  3  0.46387  0.92773  0.77623 10.50000  0.07225  57.69
ZR03  3  0.45531  1.00000  0.88301 10.50000  0.08256  41.25
O004  2  0.10560  0.58791 -0.13840 11.00000  0.06103  18.69
O005  2  0.51675  1.03349  0.67306 10.50000  0.05756  14.88
O006  2  0.05981  0.59591 -0.07899 11.00000  0.09321  14.26
O007  2  0.41049  0.94335  0.62461 11.00000  0.06967  14.24
C008  1  0.45746  1.00000  0.54190 10.50000  0.03478  14.11
C009  1  0.09589  0.60357 -0.08844 11.00000  0.05176  13.16
O00A  2  0.39858  1.00000  0.66197 10.50000  0.13777  12.80
O00B  2  0.41364  0.89570  0.69879 11.00000  0.05236  12.22
O00C  2  0.43510  0.96231  0.78067 11.00000  0.08812  12.08
O00D  2  0.46890  1.00000  1.01730 10.50000  0.09125  11.73
O00E  2  0.39920  1.00000  0.86900 10.50000  0.08981  11.30
C00F  1  0.18416  0.69227  0.05156 11.00000  0.06787  10.50
O00G  2  0.16154  0.64293 -0.04985 11.00000  0.08987  10.46
O00H  2  0.19919  0.66915 -0.00703 11.00000  0.14710  10.36
O00I  2  0.52010  1.04021  0.89350 10.50000  0.09372  10.13
C00J  1  0.21857  0.71748  0.10644 11.00000  0.05701   9.86
C00K  1  0.12511  0.63252 -0.03775 11.00000  0.06061   9.58
O00L  2  0.35274  0.88602  0.52491 11.00000  0.12260   9.41
O00M  2  0.35483  0.82754  0.60952 11.00000  0.16661   9.38
O00N  2  0.31856  0.85336  0.48294 11.00000  0.12956   9.24
O00O  2  0.25017  0.74982  0.06696 10.50000  0.13795   9.12
C00P  1  0.25187  0.74814  0.31437 10.50000  0.06174   8.93
O00Q  2  0.24617  0.75383  0.48219 10.50000  0.15330   8.87
O00R  2  0.57626  1.15252  1.14421 10.50000  0.18139   8.70
O00S  2  0.36602  0.88083  0.59828 11.00000  0.12448   8.62
C00T  1  0.24512  0.75487  0.23001 10.50000  0.05415   8.38
C00U  1  0.31181  0.81137  0.48924 11.00000  0.09612   8.37
O00V  2  0.11534  0.65416  0.00930 11.00000  0.11576   8.31
C00W  1  0.21504  0.72476  0.18386 11.00000  0.13643   8.23
C00X  1  0.27873  0.78328  0.36300 11.00000  0.05709   8.18
O00Y  2  0.31688  0.81082  0.23143 11.00000  0.13369   7.98
O00Z  2  0.32650  0.80728  0.55011 11.00000  0.09316   7.63
C010  1  0.27287  0.78841  0.44498 11.00000  0.03891   7.44
O011  2  0.30812  0.81830  0.31866 11.00000  0.12395   7.38
O012  2  0.59758  1.19517  1.14183 10.50000  0.20168   7.10
O013  2  0.14468  0.68380  0.05693 11.00000  0.14769   7.06
C014  1  0.39703  0.90492  0.64701 11.00000  0.06697   6.88
C015  1  0.40185  1.00000  0.71401 10.50000  0.06009   6.72
C016  1  0.43106  0.86211  0.40519 10.50000  0.16048   6.56
C017  1  0.43565  0.98816  0.50544 10.50000  0.07036   5.77
C018  1  0.25867  0.79352  0.75351 11.00000  0.12094   5.64
C019  1  0.50000  1.00000  1.03119 10.25000  0.13007   5.54
C01A  1  0.45809  0.91618  0.43894 10.50000  0.18177   5.20
C01B  1  0.40568  0.81136  0.36736 10.50000  0.10155   4.62
C01C  1  0.39016  0.78032  0.79384 10.50000  0.17877   4.54
C01D  1  0.46568  0.93136  0.48718 10.50000  0.18639   4.45
C01E  1  0.64920  1.29841  1.12079 10.50000  0.18979   4.42
C01F  1  0.55847  1.11694  1.18912 10.50000  0.19212   4.33
C01G  1  0.53786  1.07573  0.96501 10.50000  0.14982   4.30
C01H  1  0.66667  1.33333  1.19716 10.16667  0.18509   4.29
O01I  2  0.00000  1.00000  0.43913 10.08333  0.14523   4.28
C01J  1  0.44952  0.89905  0.50003 10.50000  0.16911   4.25
C01K  1  0.28421  0.71579  0.67846 10.50000  0.14585   4.25
C01L  1  0.68939  1.09372  1.25554 11.00000  0.23053   4.18
C01M  1  0.24463  0.75537  0.71438 10.50000  0.14985   4.11
C01N  1  0.00000  0.99999  0.07921 10.08333  0.09311   4.02
C01O  1  0.49999  1.00000  0.61779 10.25000  0.08833   4.01
C01P  1  0.50000  1.00000  1.16326 10.25000  0.15681   3.97
C01Q  1  0.00000  1.00000  0.19167 10.08333  0.10635   3.96
C01R  1  0.23820  0.80704  0.68038 11.00000  0.16676   3.93
C01S  1  0.38242  0.76484  0.87930 10.50000  0.18563   3.92
C01T  1  0.38991  1.00000  0.46994 10.50000  0.12623   3.92
C01U  1  0.25996  0.82335  0.74884 11.00000  0.17864   3.85
C01V  1  0.44329  1.00000  0.55380 10.50000  0.06665   3.77
C01W  1  0.37662  1.00000  0.48227 10.50000  0.17363   3.75
O01X  2  0.30682  0.91150  0.68706 11.00000  0.21126   3.75
C01Y  1  0.04451  0.95549 -0.23959 10.50000  0.16859   3.66
C01Z  1  0.32369  0.91034  0.74773 11.00000  0.14732   3.63
C020  1  0.26631  0.73369  0.71110 10.50000  0.18643   3.63
C021  1  0.25323  0.74676  0.77621 11.00000  0.26755   3.53
C022  1  0.29700  0.72777  0.74844 11.00000  0.18586   3.52
C023  1  0.47966  0.95932  0.42056 10.50000  0.17021   3.49
C024  1  0.50000  1.00000  1.07403 10.50000  0.18186   3.48
C025  1  0.07424  0.92576 -0.25554 10.50000  0.21502   3.46
C026  1  0.31168  0.68831  0.60928 10.50000  0.17144   3.45
C027  1  0.36589  0.97802  0.55794 11.00000  0.15843   3.41
C028  1  0.29019  0.64509  0.54849 10.50000  0.17577   3.39
O029  2  0.39187  1.00000  0.40124 10.50000  0.21982   3.35
C02A  1  0.39532  1.00000  1.00525 10.50000  0.15832   3.32
C02B  1  0.29466  0.70534  0.60590 10.50000  0.15181   3.32
C02C  1  0.05847  0.98542 -0.20646 11.00000  0.21146   3.30
C02D  1  0.36317  1.00000  0.52490 10.50000  0.14544   3.29
C02E  1  0.62679  1.29825  1.12881 11.00000  0.19098   3.27
C02F  1  0.64744  1.29487  1.05301 10.50000  0.15333   3.24
O02G  2  0.66667  1.33333  1.24180 10.16667  0.20816   3.23
C02H  1  0.53522  1.07043  1.03656 10.50000  0.16789   3.16
C02I  1  0.62733  1.08875  1.17221 11.00000  0.20937   3.13
C02J  1  0.03319  0.96680 -0.15170 10.50000  0.17823   3.10
C02K  1  0.30904  0.61808  0.49707 10.50000  0.16137   3.06
C02L  1  0.07041  0.97541 -0.12042 11.00000  0.22109   3.06
C02M  1  0.68546  1.06973  1.11690 11.00000  0.23223   3.04
O02N  2  0.17960  0.82039 -0.00480 10.50000  0.19476   3.03
C02O  1  0.56242  1.06562  1.14188 11.00000  0.19962   3.02
HKLF 4
END
