TITL job_d.res in P-62m
REM Old TITL CrystalPilot run_shelxt
REM SHELXT solution in P-62m: R1 0.390, Rweak 0.067, Alpha 0.136
REM <I/s>   0.000 for    0 systematic absences,  Orientation as input
REM Flack x =  0.439 ( 0.034 ) from  1019 Parsons' quotients
REM Formula found by SHELXT:  C695 O258 I18

CELL  0.68883  39.1900  39.1900  16.6100   90.000   90.000  120.000
ZERR    6.000   0.0000   0.0000   0.0000    0.000    0.000    0.000
LATT -1
SYMM -Y, X-Y, Z
SYMM -X+Y, -X, Z
SYMM X, Y, -Z
SYMM -Y, X-Y, -Z
SYMM -X+Y, -X, -Z
SYMM Y, X, -Z
SYMM X-Y, -Y, -Z
SYMM -X, -X+Y, -Z
SYMM Y, X, Z
SYMM X-Y, -Y, Z
SYMM -X, -X+Y, Z
SFAC C O ZR I
UNIT 528 192 36 0
L.S. 10
BOND
LIST 6
FMAP 2
PLAN 20
I001  4  0.45462  0.00000  0.39475 10.50000  0.09007  76.61
I002  4  0.53656  0.07253  0.50000 10.50000  0.08370  69.79
I003  4  0.54426  0.00000  0.60762 10.50000  0.09848  52.63
O004  2  0.60431  0.09560  0.62999 11.00000  0.05996  19.70
O005  2  0.45214  0.00000  0.25923 10.50000  0.08581  17.27
O006  2  0.49324  0.12272  0.67522 11.00000  0.14648  16.70
O007  2  0.39334  0.02972  0.59223 10.50000  0.05349  16.68
O008  2  0.59413  0.05963  0.65030 11.00000  0.04916  16.68
O009  2  0.56377 -0.03317  0.50000 10.50000  0.12370  16.39
O00A  2  0.46942  0.05741  0.66405 11.00000  0.08933  15.85
C00B  1  0.58859  0.10508  0.57858 11.00000  0.00010  15.37
C00C  1  0.48815  0.06984  0.79026 10.50000  0.04804  15.28
O00D  2  0.47240  0.03734  0.50000 10.50000  0.01801  15.15
O00E  2  0.51041  0.02645  0.58169 11.00000  0.11596  14.35
O00F  2  0.46105  0.34548  0.73874 11.00000  0.06280  13.70
O00G  2  0.52913  0.35631  0.67523 11.00000  0.14312  13.06
C00H  1  0.45926  0.31754  0.78369 11.00000  0.04700  12.44
O00I  2  0.53530  0.19763  0.72365 11.00000  0.07817  12.36
C00J  1  0.49293  0.30782  0.78020 11.00000  0.03380  12.28
O00K  2  0.59891  0.00000  0.58509 10.50000  0.05777  11.32
C00L  1  0.48791  0.24650  0.95413 11.00000  0.05303  11.17
O00M  2  0.49373  0.31007  0.95821 11.00000  0.09430  10.94
C00N  1  0.49930  0.18789  0.79110 11.00000  0.15116  10.94
O00O  2  0.46071  0.05783  0.62373 10.50000  0.03396  10.92
C00P  1  0.49932  0.17407  0.86848 11.00000  0.18959  10.57
O00Q  2  0.47978  0.31867  0.78446 11.00000  0.17293  10.54
O00R  2  0.55504  0.32896  0.73852 11.00000  0.14063  10.31
O00S  2  0.48495  0.22687  0.64195 11.00000  0.19101  10.16
C00T  1  0.49372  0.24670  0.78426 11.00000  0.07389   9.81
C00U  1  0.44206  0.07504  0.72862 11.00000  0.10932   9.44
C00V  1  0.57946  0.14662  0.87482 11.00000  0.12501   9.32
C00W  1  0.48979  0.06182  0.60107 11.00000  0.08122   9.08
C00X  1  0.55435 -0.18005  0.50000 10.50000  0.06437   8.81
C00Y  1  0.51003  0.26200  0.95103 11.00000  0.07636   8.03
C00Z  1  0.57162  0.14508  0.84407 11.00000  0.11218   8.03
O010  2  0.47694  0.14965  0.80728 11.00000  0.10217   7.85
O011  2  0.51836  0.19128  0.72358 11.00000  0.09473   7.79
C012  1  0.41502  0.07413  1.00000 10.50000  0.08942   7.50
C013  1  0.59650  0.18417  0.90104 11.00000  0.11401   6.81
C014  1  0.59152 -0.06988  0.50000 10.50000  0.12347   6.78
C015  1  0.49140  0.13816  0.81258 11.00000  0.13299   6.75
C016  1  0.06441 -0.02523  0.50000 10.25000  0.03621   6.10
C017  1  0.49416  0.21583  0.91731 11.00000  0.03667   5.93
O018  2  0.44286  0.42214  1.00000 10.25000  0.17510   5.75
C019  1  0.56158 -0.08556  0.50000 10.50000  0.04838   5.60
C01A  1  0.53671 -0.17471  0.50000 10.50000  0.16360   5.40
O01B  2  0.60306  0.19161  0.50000 10.50000  0.10459   5.32
C01C  1  0.53525  0.00000  0.73641 10.50000  0.00898   5.28
C01D  1  0.54002 -0.11132  0.50000 10.50000  0.10169   5.07
C01E  1  0.51195  0.00000  0.85650 10.50000  0.09990   5.02
C01F  1  0.51958  0.13983  0.82388 11.00000  0.13332   4.94
C01G  1  0.60848  0.16889  0.50000 10.50000  0.09410   4.88
C01H  1  0.04267 -0.01555  0.34829 10.50000  0.06636   4.60
C01I  1  0.00000  0.00000  0.09034 10.16667  0.14997   4.59
C01J  1  0.55377  0.04565  0.81502 11.00000  0.12569   4.54
C01K  1  0.42688  0.18039  0.50000 10.50000  0.11371   4.50
C01L  1  0.44666 -0.29099  0.50000 10.50000  0.13149   4.47
C01M  1  0.54121  0.05512  0.79668 11.00000  0.08777   4.46
C01N  1  0.17457  0.00000  0.50000 10.25000  0.15599   4.46
C01O  1  0.00799 -0.08037  0.50000 10.50000  0.11649   4.44
C01P  1  0.47559  0.37776  1.00000 10.50000  0.08653   4.44
C01Q  1  0.00000  0.00000  0.42397 10.16667  0.15818   4.39
C01R  1  0.10899 -0.01568  0.00000 10.50000  0.14627   4.37
C01S  1  0.44128  0.00000  0.41812 10.50000  0.04627   4.36
C01T  1  0.55962 -0.14921  0.50000 10.50000  0.17396   4.34
C01U  1  0.51442  0.07639  0.82044 11.00000  0.14273   4.29
C01V  1  0.12264 -0.01838  0.50000 10.50000  0.14330   4.28
C01W  1  0.50716 -0.23523  0.50000 10.50000  0.11751   4.27
C01X  1  0.04330 -0.02177  0.50000 10.50000  0.09236   4.24
C01Y  1  0.43008 -0.30495  0.47549 11.00000  0.14968   4.21
C01Z  1  0.54468  0.11813  0.86176 11.00000  0.09389   4.20
C020  1  0.00000  0.00000  0.08305 10.16667  0.14430   4.15
C021  1  0.60185 -0.12893  0.50000 10.50000  0.16412   4.13
C022  1  0.62779  0.29655  1.15675 11.00000  0.16146   4.03
C023  1  0.02029 -0.02852  0.44327 11.00000  0.17151   3.98
O024  2  0.56921  0.02437  0.80869 10.50000  0.17643   3.96
C025  1  0.59432  0.13554  0.81502 11.00000  0.12895   3.92
C026  1  0.27092  0.04548  1.00000 10.25000  0.09792   3.86
C027  1  0.65797 -0.09565  0.67919 11.00000  0.14083   3.85
C028  1  0.43183  0.15710  0.50000 10.50000  0.13234   3.85
C029  1  0.11162  0.00000  0.17387 10.50000  0.08651   3.79
C02A  1  0.20431  0.01933  0.38423 10.50000  0.12779   3.79
C02B  1  0.04253 -0.01915  0.20135 10.50000  0.08698   3.73
C02C  1  0.07561 -0.09292  0.50000 10.50000  0.04944   3.71
C02D  1  0.51989  0.01823  0.90218 11.00000  0.08300   3.62
O02E  2  0.59356  0.34645  0.66837 11.00000  0.21985   3.61
C02F  1  0.38120  0.06058  1.00000 11.00000  0.15072   3.61
C02G  1  0.51559  0.03615  0.61626 11.00000  0.04528   3.61
C02H  1  0.65065  0.32981  1.15066 11.00000  0.12879   3.58
C02I  1  0.42994  0.38689  1.00000 10.50000  0.09867   3.54
C02J  1  0.39075  0.06666  0.94662 11.00000  0.10953   3.50
C02K  1  0.45459  0.34989  0.91633 11.00000  0.18999   3.50
O02L  2  0.66109 -0.16012  0.50000 10.50000  0.17681   3.48
C02M  1  0.54181 -0.20144  0.50000 11.00000  0.17279   3.48
C02N  1  0.42576  0.09375  0.50000 10.50000  0.06632   3.43
O02O  2  0.41590  0.18569  1.00000 10.50000  0.15248   3.42
C02P  1  0.40332  0.07114  0.50000 11.00000  0.19335   3.39
C02Q  1 -0.02627 -0.02627  0.00000 10.50000  0.20815   3.36
C02R  1  0.13080 -0.02619  0.57362 11.00000  0.11924   3.30
C02S  1  0.65944 -0.03790  0.73112 10.50000  0.08528   3.28
C02T  1  0.64480 -0.04366  0.50000 10.50000  0.14783   3.25
C02U  1  0.41185 -0.33848  0.50000 10.50000  0.09637   3.24
C02V  1  0.37701  0.08527  0.79116 11.00000  0.17251   3.23
C02W  1  0.59549 -0.12167  0.58173 11.00000  0.09829   3.21
C02X  1  0.19048  0.02610  0.50000 10.50000  0.06768   3.17
C02Y  1  0.59235  0.32250  1.00000 11.00000  0.15981   3.16
C02Z  1  0.40223  0.09275  0.50000 10.50000  0.08988   3.14
C030  1  0.29832  0.05410  0.50000 10.50000  0.11584   3.12
C031  1  0.09215 -0.01615  0.12778 10.50000  0.08595   3.11
O032  2  0.28713  0.20928  1.00000 10.50000  0.13765   3.09
O033  2  0.00000 -0.13756  0.19625 10.50000  0.20016   3.04
C034  1  0.65540  0.34056  1.18314 11.00000  0.16537   3.03
C035  1  0.00001  0.00000  0.26840 10.16667  0.15382   3.01
O036  2  0.29970  0.28908  1.00000 10.25000  0.08861   3.01
HKLF 4
END
