TITL job_e.res in P622
REM Old TITL CrystalPilot run_shelxt
REM SHELXT solution in P622: R1 0.402, Rweak 0.071, Alpha 0.147
REM <I/s>   0.000 for    0 systematic absences,  Orientation as input
REM Flack x =  0.488 ( 0.065 ) from   769 Parsons' quotients
REM Formula found by SHELXT:  C359 O133 Zr9

CELL  0.68883  39.1900  39.1900  16.6100   90.000   90.000  120.000
ZERR    6.000   0.0000   0.0000   0.0000    0.000    0.000    0.000
LATT -1
SYMM -Y, X-Y, Z
SYMM -X+Y, -X, Z
SYMM -X, -Y, Z
SYMM Y, -X+Y, Z
SYMM X-Y, X, Z
SYMM Y, X, -Z
SYMM X-Y, -Y, -Z
SYMM -X, -X+Y, -Z
SYMM -Y, -X, -Z
SYMM -X+Y, Y, -Z
SYMM X, X-Y, -Z
SFAC C O ZR
UNIT 528 192 36
L.S. 10
BOND
LIST 6
FMAP 2
PLAN 20
ZR01  3  0.46374  0.53626  0.50000 10.50000  0.07683  69.36
ZR02  3  0.54498  0.54473  0.39353 11.00000  0.08315  65.05
O003  2  0.53686  0.59481  0.36848 11.00000  0.10943  22.18
O004  2  0.59100  0.48721  0.42968 11.00000  0.06982  19.61
O005  2  0.56252  0.52835  0.49713 11.00000  0.09749  15.23
O006  2  0.48921  0.52258  0.39596 11.00000  0.08499  15.08
O007  2  0.48247  0.58673  0.41506 11.00000  0.03323  15.05
O008  2  0.46428  0.46260  0.25804 11.00000  0.12559  14.73
O009  2  0.60374  0.60188  0.41281 11.00000  0.10262  14.47
C00A  1  0.51480  0.64346  0.36529 11.00000  0.12747  13.29
C00B  1  0.50527  0.63034  0.32128 11.00000  0.05612  12.36
O00C  2  0.47525  0.63505  0.31050 11.00000  0.11753  12.33
O00D  2  0.47888  0.67817  0.28243 11.00000  0.12462  11.67
C00E  1  0.68930  0.51043  0.23140 11.00000  0.06430  11.56
C00F  1  0.52911  0.71079  0.21881 11.00000  0.10675  11.47
O00G  2  0.53027  0.65909  0.28392 11.00000  0.17169  11.40
C00H  1  0.71689  0.49461 -0.08180 11.00000  0.05882  10.87
C00I  1  0.50282  0.68643  0.20716 11.00000  0.05183  10.86
C00J  1  0.60593  0.50738  0.38038 11.00000  0.08767  10.86
O00K  2  0.59241  0.53576  0.34921 11.00000  0.09071  10.09
C00L  1  0.60923  0.50716  0.28522 11.00000  0.13323   9.93
O00M  2  0.64566  0.53386  0.24890 11.00000  0.10983   9.88
O00N  2  0.68525  0.53557  0.20593 11.00000  0.09987   9.84
O00O  2  0.69178  0.51177 -0.04509 11.00000  0.11265   9.83
O00P  2  0.50819  0.75606  0.21688 11.00000  0.17424   9.68
O00Q  2  0.64286  0.47520  0.31356 11.00000  0.13649   9.55
O00R  2  0.66852  0.47998  0.26350 11.00000  0.10133   9.44
C00S  1  0.70594  0.52928  0.19951 11.00000  0.12726   9.33
C00T  1  0.72670  0.51212  0.08924 11.00000  0.06728   9.10
O00U  2  0.52403  0.68120  0.22666 11.00000  0.11640   8.63
O00V  2  0.57611  0.42282  0.15186 11.00000  0.16835   8.20
O00W  2  0.68295  0.49659  0.03103 11.00000  0.18616   7.42
C00X  1  0.51109  0.74372  0.44584 11.00000  0.21743   6.93
C00Y  1  0.58869  0.40532  0.06296 11.00000  0.14969   6.22
C00Z  1  0.56581  0.47426  0.23232 11.00000  0.08092   6.00
C010  1  0.50000  0.50000  0.30404 10.50000  0.18626   5.27
C011  1  0.63300  0.57398  0.00452 11.00000  0.11933   5.14
C012  1  0.65554  0.62213  0.17704 11.00000  0.15554   5.10
C013  1  0.61960  0.44103  0.46955 10.50000  0.04923   5.08
C014  1  0.54197  0.46874  0.25746 11.00000  0.12711   5.05
C015  1  0.56967  0.46244  0.13535 11.00000  0.12499   4.94
C016  1  0.57769  0.68905  0.12506 11.00000  0.12236   4.83
C017  1  0.56378  0.70113  0.49771 11.00000  0.13436   4.83
C018  1  0.56621  0.65799  0.54248 11.00000  0.13751   4.70
C019  1  0.92013  0.94056  0.51740 11.00000  0.20630   4.54
C01A  1  0.50828  0.69364  0.52695 11.00000  0.20931   4.31
C01B  1  0.53680  0.66007  0.44836 11.00000  0.07930   4.27
C01C  1  0.48213  0.73284  0.46302 11.00000  0.10357   4.23
C01D  1  0.54406  0.42798  0.11412 11.00000  0.17644   4.21
C01E  1  0.54007  0.43726  0.19270 11.00000  0.12730   4.20
C01F  1  0.54868  0.74861  0.50979 11.00000  0.11908   3.77
C01G  1  0.60640  0.60910  0.15967 11.00000  0.13833   3.68
C01H  1  0.66552  0.35037  0.07365 11.00000  0.17811   3.66
O01I  2  1.00000  0.99999  0.95723 10.16667  0.18377   3.64
C01J  1  0.63036  0.63707  0.14386 11.00000  0.16319   3.62
C01K  1  0.63329  0.58029  0.08949 11.00000  0.14048   3.60
C01L  1  0.62986  0.51744 -0.02102 11.00000  0.17650   3.60
C01M  1  0.45220  0.70751  0.48773 11.00000  0.14334   3.53
C01N  1  0.64105  0.43163  0.41266 11.00000  0.13188   3.51
C01O  1  0.68061  0.63422  0.12694 11.00000  0.14674   3.50
C01P  1  0.56387  0.43614  0.00000 10.50000  0.10393   3.48
C01Q  1  0.61508  0.72926  0.62085 11.00000  0.10528   3.43
C01R  1  0.43428  0.71714  0.50000 11.00000  0.17821   3.41
C01S  1  0.91583  0.93054  0.57238 11.00000  0.13998   3.41
C01T  1  0.64738  0.76220  0.59040 11.00000  0.14704   3.39
C01U  1  0.86616  0.92703  0.54573 11.00000  0.13612   3.35
O01V  2  0.60880  0.31071  0.30854 11.00000  0.16394   3.34
C01W  1  0.63010  0.33208  0.11264 11.00000  0.18549   3.31
C01X  1  0.50000  0.50000  0.13476 11.00000  0.16233   3.29
C01Y  1  0.55440  0.49272  0.14882 11.00000  0.15664   3.28
O01Z  2  0.63059  0.64514  0.27578 11.00000  0.14858   3.26
C020  1  0.60677  0.68332  0.61346 11.00000  0.13248   3.24
C021  1  0.49883  0.46477  0.19496 11.00000  0.14791   3.21
C022  1  0.58569  0.67855  0.51106 11.00000  0.11349   3.20
C023  1  0.55708  0.67078  0.52551 11.00000  0.12567   3.18
C024  1  0.95414  0.94932  0.60541 11.00000  0.18315   3.18
C025  1  0.62797  0.30201  0.23847 11.00000  0.11003   3.13
C026  1  0.62609  0.38412  0.07483 11.00000  0.14451   3.11
C027  1  0.62650  0.39421  0.38217 11.00000  0.13257   3.11
C028  1  0.65286  0.69876  0.62800 11.00000  0.20034   3.10
C029  1  0.67966  0.61159  0.15551 11.00000  0.13762   3.10
C02A  1  0.66667  0.33333  0.15302 10.33333  0.13420   3.07
C02B  1  0.63860  0.31133  0.17014 11.00000  0.15325   3.05
C02C  1  0.59204  0.72244  0.65618 11.00000  0.13553   3.02
C02D  1  0.68051  0.82742  0.02183 11.00000  0.16302   3.02
C02E  1  0.63079  0.74137  0.62885 11.00000  0.11564   3.02
C02F  1  0.63230  0.37900  0.40678 11.00000  0.12032   3.00
HKLF 4
END
