TITL job_c.res in P-6m2
REM Old TITL CrystalPilot run_shelxt
REM SHELXT solution in P-6m2: R1 0.328, Rweak 0.051, Alpha 0.137
REM <I/s>   0.000 for    0 systematic absences,  Orientation as input
REM Flack x =  0.434 ( 0.068 ) from  1088 Parsons' quotients
REM Formula found by SHELXT:  C367 O311 Zr18

CELL  0.68883  39.1900  39.1900  16.6100   90.000   90.000  120.000
ZERR    6.000   0.0000   0.0000   0.0000    0.000    0.000    0.000
LATT -1
SYMM -Y, X-Y, Z
SYMM -X+Y, -X, Z
SYMM X, Y, -Z
SYMM -Y, X-Y, -Z
SYMM -X+Y, -X, -Z
SYMM -Y, -X, Z
SYMM -X+Y, Y, Z
SYMM X, X-Y, Z
SYMM -Y, -X, -Z
SYMM -X+Y, Y, -Z
SYMM X, X-Y, -Z
SFAC C O ZR
UNIT 528 192 36
L.S. 10
BOND
LIST 6
FMAP 2
PLAN 20
ZR01  3  0.46402  0.53598  0.50000 10.25000  0.07091  73.18
ZR02  3  0.45508  0.45523  0.39373 11.00000  0.07849  54.24
ZR03  3  0.53638  0.46362  0.50000 10.25000  0.07189  40.42
O004  2  0.47270  0.43537  0.50000 10.50000  0.03473  17.36
O005  2  0.41542  0.51942  0.41392 11.00000  0.05985  14.70
O006  2  0.48085  0.51915  0.37915 10.50000  0.05567  14.19
O007  2  0.46461  0.40560  0.35683 11.00000  0.04751  14.01
O008  2  0.51649  0.41149  0.42182 11.00000  0.03785  13.63
O009  2  0.40953  0.46556  0.33351 11.00000  0.09766  13.17
O00A  2  0.45962  0.45946  0.26674 11.00000  0.09042  12.39
O00B  2  0.46605  0.53395  0.50000 10.50000  0.22073  12.06
O00C  2  0.40068  0.39925  0.40900 11.00000  0.10388  11.29
O00D  2  0.51552  0.48447  0.40399 10.50000  0.06930  11.01
C00E  1  0.57831  0.28916  0.08479 10.50000  0.13582  10.28
C00F  1  0.31351  0.49619  0.21561 11.00000  0.07808  10.28
C00G  1  0.51883  0.29843  0.17223 11.00000  0.21115   9.96
C00H  1  0.39611  0.49416  0.37373 11.00000  0.06984   9.53
O00I  2  0.51834  0.35574  0.32851 11.00000  0.10260   9.19
O00J  2  0.49063  0.39898  0.36706 11.00000  0.07081   9.18
O00K  2  0.49699  0.24850  0.21355 10.50000  0.15028   9.05
O00L  2  0.32968  0.52030  0.27254 11.00000  0.12595   9.00
O00M  2  0.52337  0.32534  0.28121 11.00000  0.12679   8.97
O00N  2  0.35678  0.52541  0.31760 11.00000  0.14661   8.76
O00O  2  0.57049  0.42952 -0.14393 10.50000  0.15523   8.72
C00P  1  0.29983  0.59967  0.00000 10.50000  0.18989   8.65
O00Q  2  0.46269  0.34740  0.25947 11.00000  0.08628   8.62
O00R  2  0.37925  0.43981  0.27159 11.00000  0.25446   8.61
O00S  2  0.58999  0.41001  0.00000 10.50000  0.25534   8.42
O00T  2  0.49216  0.31157  0.22522 11.00000  0.14888   8.25
C00U  1  0.54228  0.31215  0.27534 11.00000  0.15900   8.20
O00V  2  0.30500  0.48702  0.04511 11.00000  0.09906   8.19
C00W  1  0.48154  0.27343  0.17449 11.00000  0.09989   8.03
C00X  1  0.27972  0.49621  0.16772 11.00000  0.03954   7.95
O00Y  2  0.32458  0.41313  0.00000 10.50000  0.19446   7.47
O00Z  2  0.31793  0.46438  0.21111 11.00000  0.08892   7.32
O010  2  0.49158  0.36858  0.31738 11.00000  0.08816   7.14
C011  1  0.42050  0.25599  0.50000 10.50000  0.17321   7.14
C012  1  0.25512  0.44804  0.23248 10.50000  0.12999   6.83
C013  1  0.50451  0.31636  0.04562 11.00000  0.17697   6.39
C014  1  0.43477  0.56523  0.11687 10.50000  0.18948   6.33
O015  2  0.39130  0.60870  0.50000 10.25000  0.18689   6.07
C016  1  0.58131  0.41870 -0.12918 10.50000  0.10330   6.01
C017  1  0.27950  0.49498  0.08755 11.00000  0.03680   5.70
C018  1  0.26132  0.52265  0.50000 10.25000  0.14636   5.67
C019  1  0.57276  0.40686  0.50000 10.25000  0.07029   5.25
O01A  2  0.50223  0.37609  0.50000 10.50000  0.21725   5.05
C01B  1  0.28505  0.57009  0.50000 10.50000  0.19923   4.80
C01C  1  0.06593  0.03296  0.50000 10.50000  0.24056   4.72
C01D  1  0.33535  0.41845  0.50000 10.50000  0.17892   4.69
C01E  1  0.22035  0.11018  0.50000 10.25000  0.11843   4.55
C01F  1  0.54896  0.27448  0.00000 10.50000  0.19202   4.34
O01G  2  0.45775  0.54225  0.19673 10.50000  0.23635   4.33
C01H  1  0.30699  0.49248  0.50000 10.50000  0.18031   4.30
C01I  1  0.30155  0.55230  0.50000 11.00000  0.26238   4.21
C01J  1  0.27470  0.53155  0.54961 10.50000  0.09536   4.05
C01K  1  0.48656  0.27758  0.50000 10.50000  0.18966   3.97
C01L  1  0.59997  0.40003  0.50000 10.25000  0.10804   3.96
C01M  1  0.00000  0.00000  0.06206 10.16667  0.13381   3.94
C01N  1  0.28353  0.37376  0.41860 11.00000  0.15807   3.88
C01O  1  0.34160  0.45017  0.50000 10.50000  0.15063   3.84
C01P  1  0.33047  0.47045  0.50000 10.50000  0.17594   3.83
C01Q  1  0.30327  0.42039  0.44369 11.00000  0.21937   3.79
C01R  1  0.49534  0.50465  0.23959 10.50000  0.12699   3.72
C01S  1  0.37575  0.62425  0.11502 10.50000  0.18472   3.70
O01T  2 -0.03079 -0.01539  0.33971 10.50000  0.21055   3.69
C01U  1  0.57173  0.31616  0.22261 10.50000  0.13552   3.64
C01V  1  0.47634  0.36883  0.50000 10.50000  0.11567   3.60
O01W  2  0.00000  0.00000  0.50000 10.08333  0.15728   3.56
C01X  1  0.46321  0.23161  0.50000 10.25000  0.18598   3.54
C01Y  1  0.26160  0.46572  0.50000 10.50000  0.11460   3.53
C01Z  1  0.37353  0.62647  0.50000 10.25000  0.09517   3.49
C020  1  0.61830  0.35645  0.53427 10.50000  0.13479   3.46
O021  2  0.44210  0.55790  0.06791 10.50000  0.18075   3.43
C022  1  0.48018  0.49731  0.10676 10.50000  0.10817   3.42
O023  2  0.33333  0.66667  0.00000 10.08333  0.16581   3.41
O024  2  0.45206  0.50614  0.14250 11.00000  0.29561   3.41
C025  1  0.43459  0.56541  0.00000 10.50000  0.20079   3.39
C026  1  0.00000  0.00000  0.00000 10.16667  0.13962   3.34
C027  1  0.47430  0.47980  0.24756 10.50000  0.05142   3.31
C028  1  0.40403  0.59597  0.09210 11.00000  0.15047   3.29
C029  1  0.19585  0.15894  0.50000 10.50000  0.18732   3.27
C02A  1  0.57719  0.42280  0.00000 10.25000  0.11241   3.25
C02B  1  0.60570  0.32051  0.09267 10.50000  0.11444   3.22
C02C  1  0.20645  0.35531  0.50000 10.50000  0.11680   3.21
C02D  1 -0.01447 -0.02894  0.11982 10.50000  0.14311   3.20
C02E  1  0.58414  0.36680  0.50000 10.50000  0.19271   3.18
O02F  2  0.40485  0.35561  0.10370 11.00000  0.20291   3.15
C02G  1  0.62049  0.37951  0.67158 10.50000  0.16351   3.15
O02H  2  0.50077  0.35448  0.00000 10.50000  0.19591   3.14
C02I  1  0.09439  0.04720  0.50000 10.50000  0.21299   3.06
C02J  1  0.51025  0.35234  0.50000 10.50000  0.16975   3.01
C02K  1  0.42445  0.57555  0.06991 10.50000  0.11623   3.01
HKLF 4
END
