TITL m2 recompute of delivered CIF model, atoms fixed, scale refined
    m2.res
    created by SHELXL-2019/3 at 09:19:41 on 22-Sep-2026
CELL 0.68883 39.1900 39.1900 16.6100 90.000 90.000 120.000
ZERR 24 0.001 0.001 0.001 0.01 0.01 0.01
LATT 1
SYMM X-Y,X,Z
SYMM -Y,X-Y,Z
SYMM -X,-Y,Z
SYMM -X+Y,-X,Z
SYMM Y,-X+Y,Z
SYMM -Y,-X,-Z
SYMM -X,-X+Y,-Z
SYMM -X+Y,Y,-Z
SYMM Y,X,-Z
SYMM X,X-Y,-Z
SYMM X-Y,-Y,-Z
SFAC Zr O C H
DISP Zr -9.04135 2.77167 0.0
DISP O 0.00706 0.00568 0.0
DISP C 0.00188 0.00150 0.0
DISP H 0.00000 0.00000 0.0
UNIT 48 144 288 144
MERG 2
L.S. 4
LIST 4
FMAP 2
PLAN 5
SHEL 999 1
WGHT    0.080000
FVAR       0.04892
ZR1   1   10.544826   10.000000   10.106175    10.50000   10.08728   10.06406 =
        10.08033   10.00000    9.98746   10.03203
ZR2   1   10.536126   10.072254   10.000000    10.25000   10.08103   10.05795 =
        10.06079   10.00000   10.00000   10.02898
O1    2   10.462882   10.000000   10.240261    10.50000   10.18612   10.07411 =
        10.06963   10.00000   10.02179   10.03706
O2    2   10.518098   10.036194   10.107136    10.50000   10.09764   10.08967 =
        10.16639   10.04557   10.02278   10.04484
O3    2   10.473660   10.036601   10.000000    10.50000   10.12427   10.08989 =
        10.08117   10.00000   10.00000   10.00543
O4    2   10.518706   10.105311   10.081147    11.00000   10.10657   10.06275 =
        10.08203    9.99999   10.00069   10.03772
O5    2   10.398717   10.000000   10.088408    10.50000   10.08404   10.08864 =
        10.26759   10.00000   10.00165   10.04432
O6    2   10.466043   10.059210   10.150671    11.00000   10.11143   10.07303 =
        10.11290    9.98448   10.02209   10.03739
C1    3   10.495430   10.247714   10.457335    10.50000   10.25205   10.10482 =
        10.07443   10.00883   10.01766   10.12603
C2    3   10.462687   10.144223   10.290401    11.00000   10.25871   10.10698 =
        10.10797   10.03158   10.05758   10.11979
C3    3   10.522938   10.193366   10.223997    11.00000   10.18176   10.08676 =
        10.11035    9.98893   10.01269   10.06992
C4    3   10.461765   10.114653   10.241200    11.00000   10.16515   10.10159 =
        10.11964   10.00827   10.05313   10.07962
C5    3   10.495088   10.216969   10.331147    11.00000   10.21615   10.10845 =
        10.07403    9.99763   10.00822   10.11310
C6    3   10.493635   10.184031   10.282229    11.00000   10.22835   10.11218 =
        10.06809   10.01088   10.01878   10.11201
C7    3   10.495273   10.184789   10.458526    11.00000   10.25384   10.11795 =
        10.08519    9.99018    9.98182   10.12066
C8    3   10.522267   10.163812   10.176209    11.00000   10.16366   10.07952 =
        10.09225    9.99747   10.03591   10.06301
C9    3   10.495233   10.216670   10.415117    11.00000   10.23008   10.11572 =
        10.07606   10.00254   10.01809   10.12386
C10   3   10.491856   10.124898   10.185006    11.00000   10.13591   10.07817 =
        10.09023    9.99936   10.00873   10.06368
C11   3   10.495395   10.247696   10.290380    10.50000   10.22165   10.09863 =
        10.08571   10.01203   10.02406   10.11082
C12   3   10.491982   10.094173   10.134124    11.00000   10.11958   10.06337 =
        10.08480    9.99741    9.99427   10.04121
H2    4   10.442656   10.137627   10.329528    11.00000   10.17433
H3    4   10.543284   10.219935   10.217241    11.00000   10.15006
H4    4   10.441057   10.088118   10.246047    11.00000   10.14765
H7    4   10.495244   10.163802   10.429852    11.00000   10.16801
H8    4   10.542424   10.170197   10.137496    11.00000   10.13300
H11   4   10.495762   10.247881   10.233191    10.50000   10.14599
HKLF 4




REM  m2 recompute of delivered CIF model, atoms fixed, scale refined
REM wR2 = 0.4674, GooF = S = 2.584, Restrained GooF = 2.584 for all data
REM R1 = 0.1785 for 2063 Fo > 4sig(Fo) and 0.2637 for all 4395 data
REM 1 parameters refined using 0 restraints

END  
     
WGHT      0.2000      0.0000 

REM Highest difference peak  1.522,  deepest hole -1.182,  1-sigma level  0.167
Q1    1   0.5708  0.1416  0.3632  10.50000  0.05    1.52
Q2    1   0.5952  0.1904  0.4022  10.50000  0.05    1.25
Q3    1   0.4099  0.0742  0.5000  10.50000  0.05    1.01
Q4    1   0.6055  0.2110  0.0000  10.25000  0.05    0.94
Q5    1   0.4621  0.2024  0.0000  10.50000  0.05    0.94
